    1C
    1UModel: beam     Date: 10-Mar-1998                                 
    1UUSER                                                              
    1UDATE              30.may.2018                                     
    1UTIME              08:16:11                                        
    1UHOST                                                              
    1UPGM               CalculiX                                        
    1UVERSION           Version 2.12                             
    1UCOMPILETIME       So 2. Apr 15:03:04 CEST 2017                    
    1UDIR                                                               
    1UDBN                                                               
    1UMAT    1EL                                                        
    2C                           261                                     1
 -1         1 0.00000E+00 0.00000E+00 0.00000E+00
 -1         2 1.00000E+00 0.00000E+00 0.00000E+00
 -1         3 1.00000E+00 1.50000E+00 0.00000E+00
 -1         4 0.00000E+00 1.50000E+00 0.00000E+00
 -1         5 0.00000E+00 0.00000E+00 8.00000E+00
 -1         6 1.00000E+00 0.00000E+00 8.00000E+00
 -1         7 1.00000E+00 1.50000E+00 8.00000E+00
 -1         8 0.00000E+00 1.50000E+00 8.00000E+00
 -1         9 2.50000E-01 0.00000E+00 0.00000E+00
 -1        10 5.00000E-01 0.00000E+00 0.00000E+00
 -1        11 7.50000E-01 0.00000E+00 0.00000E+00
 -1        12 1.00000E+00 3.75000E-01 0.00000E+00
 -1        13 1.00000E+00 7.50000E-01 0.00000E+00
 -1        14 1.00000E+00 1.12500E+00 0.00000E+00
 -1        15 7.50000E-01 1.50000E+00 0.00000E+00
 -1        16 5.00000E-01 1.50000E+00 0.00000E+00
 -1        17 2.50000E-01 1.50000E+00 0.00000E+00
 -1        18 0.00000E+00 1.12500E+00 0.00000E+00
 -1        19 0.00000E+00 7.50000E-01 0.00000E+00
 -1        20 0.00000E+00 3.75000E-01 0.00000E+00
 -1        21 2.50000E-01 0.00000E+00 8.00000E+00
 -1        22 5.00000E-01 0.00000E+00 8.00000E+00
 -1        23 7.50000E-01 0.00000E+00 8.00000E+00
 -1        24 1.00000E+00 3.75000E-01 8.00000E+00
 -1        25 1.00000E+00 7.50000E-01 8.00000E+00
 -1        26 1.00000E+00 1.12500E+00 8.00000E+00
 -1        27 7.50000E-01 1.50000E+00 8.00000E+00
 -1        28 5.00000E-01 1.50000E+00 8.00000E+00
 -1        29 2.50000E-01 1.50000E+00 8.00000E+00
 -1        30 0.00000E+00 1.12500E+00 8.00000E+00
 -1        31 0.00000E+00 7.50000E-01 8.00000E+00
 -1        32 0.00000E+00 3.75000E-01 8.00000E+00
 -1        33 1.00000E+00 0.00000E+00 5.00000E-01
 -1        34 1.00000E+00 0.00000E+00 1.00000E+00
 -1        35 1.00000E+00 0.00000E+00 1.50000E+00
 -1        36 1.00000E+00 0.00000E+00 2.00000E+00
 -1        37 1.00000E+00 0.00000E+00 2.50000E+00
 -1        38 1.00000E+00 0.00000E+00 3.00000E+00
 -1        39 1.00000E+00 0.00000E+00 3.50000E+00
 -1        40 1.00000E+00 0.00000E+00 4.00000E+00
 -1        41 1.00000E+00 0.00000E+00 4.50000E+00
 -1        42 1.00000E+00 0.00000E+00 5.00000E+00
 -1        43 1.00000E+00 0.00000E+00 5.50000E+00
 -1        44 1.00000E+00 0.00000E+00 6.00000E+00
 -1        45 1.00000E+00 0.00000E+00 6.50000E+00
 -1        46 1.00000E+00 0.00000E+00 7.00000E+00
 -1        47 1.00000E+00 0.00000E+00 7.50000E+00
 -1        48 0.00000E+00 0.00000E+00 7.50000E+00
 -1        49 0.00000E+00 0.00000E+00 7.00000E+00
 -1        50 0.00000E+00 0.00000E+00 6.50000E+00
 -1        51 0.00000E+00 0.00000E+00 6.00000E+00
 -1        52 0.00000E+00 0.00000E+00 5.50000E+00
 -1        53 0.00000E+00 0.00000E+00 5.00000E+00
 -1        54 0.00000E+00 0.00000E+00 4.50000E+00
 -1        55 0.00000E+00 0.00000E+00 4.00000E+00
 -1        56 0.00000E+00 0.00000E+00 3.50000E+00
 -1        57 0.00000E+00 0.00000E+00 3.00000E+00
 -1        58 0.00000E+00 0.00000E+00 2.50000E+00
 -1        59 0.00000E+00 0.00000E+00 2.00000E+00
 -1        60 0.00000E+00 0.00000E+00 1.50000E+00
 -1        61 0.00000E+00 0.00000E+00 1.00000E+00
 -1        62 0.00000E+00 0.00000E+00 5.00000E-01
 -1        63 1.00000E+00 1.50000E+00 5.00000E-01
 -1        64 1.00000E+00 1.50000E+00 1.00000E+00
 -1        65 1.00000E+00 1.50000E+00 1.50000E+00
 -1        66 1.00000E+00 1.50000E+00 2.00000E+00
 -1        67 1.00000E+00 1.50000E+00 2.50000E+00
 -1        68 1.00000E+00 1.50000E+00 3.00000E+00
 -1        69 1.00000E+00 1.50000E+00 3.50000E+00
 -1        70 1.00000E+00 1.50000E+00 4.00000E+00
 -1        71 1.00000E+00 1.50000E+00 4.50000E+00
 -1        72 1.00000E+00 1.50000E+00 5.00000E+00
 -1        73 1.00000E+00 1.50000E+00 5.50000E+00
 -1        74 1.00000E+00 1.50000E+00 6.00000E+00
 -1        75 1.00000E+00 1.50000E+00 6.50000E+00
 -1        76 1.00000E+00 1.50000E+00 7.00000E+00
 -1        77 1.00000E+00 1.50000E+00 7.50000E+00
 -1        78 0.00000E+00 1.50000E+00 5.00000E-01
 -1        79 0.00000E+00 1.50000E+00 1.00000E+00
 -1        80 0.00000E+00 1.50000E+00 1.50000E+00
 -1        81 0.00000E+00 1.50000E+00 2.00000E+00
 -1        82 0.00000E+00 1.50000E+00 2.50000E+00
 -1        83 0.00000E+00 1.50000E+00 3.00000E+00
 -1        84 0.00000E+00 1.50000E+00 3.50000E+00
 -1        85 0.00000E+00 1.50000E+00 4.00000E+00
 -1        86 0.00000E+00 1.50000E+00 4.50000E+00
 -1        87 0.00000E+00 1.50000E+00 5.00000E+00
 -1        88 0.00000E+00 1.50000E+00 5.50000E+00
 -1        89 0.00000E+00 1.50000E+00 6.00000E+00
 -1        90 0.00000E+00 1.50000E+00 6.50000E+00
 -1        91 0.00000E+00 1.50000E+00 7.00000E+00
 -1        92 0.00000E+00 1.50000E+00 7.50000E+00
 -1        93 5.00000E-01 3.75000E-01 0.00000E+00
 -1        94 2.50000E-01 7.50000E-01 0.00000E+00
 -1        95 5.00000E-01 7.50000E-01 0.00000E+00
 -1        96 7.50000E-01 7.50000E-01 0.00000E+00
 -1        97 5.00000E-01 1.12500E+00 0.00000E+00
 -1        98 5.00000E-01 3.75000E-01 8.00000E+00
 -1        99 2.50000E-01 7.50000E-01 8.00000E+00
 -1       100 5.00000E-01 7.50000E-01 8.00000E+00
 -1       101 7.50000E-01 7.50000E-01 8.00000E+00
 -1       102 5.00000E-01 1.12500E+00 8.00000E+00
 -1       103 5.00000E-01 0.00000E+00 5.00000E-01
 -1       104 2.50000E-01 0.00000E+00 1.00000E+00
 -1       105 5.00000E-01 0.00000E+00 1.00000E+00
 -1       106 7.50000E-01 0.00000E+00 1.00000E+00
 -1       107 5.00000E-01 0.00000E+00 1.50000E+00
 -1       108 2.50000E-01 0.00000E+00 2.00000E+00
 -1       109 5.00000E-01 0.00000E+00 2.00000E+00
 -1       110 7.50000E-01 0.00000E+00 2.00000E+00
 -1       111 5.00000E-01 0.00000E+00 2.50000E+00
 -1       112 2.50000E-01 0.00000E+00 3.00000E+00
 -1       113 5.00000E-01 0.00000E+00 3.00000E+00
 -1       114 7.50000E-01 0.00000E+00 3.00000E+00
 -1       115 5.00000E-01 0.00000E+00 3.50000E+00
 -1       116 2.50000E-01 0.00000E+00 4.00000E+00
 -1       117 5.00000E-01 0.00000E+00 4.00000E+00
 -1       118 7.50000E-01 0.00000E+00 4.00000E+00
 -1       119 5.00000E-01 0.00000E+00 4.50000E+00
 -1       120 2.50000E-01 0.00000E+00 5.00000E+00
 -1       121 5.00000E-01 0.00000E+00 5.00000E+00
 -1       122 7.50000E-01 0.00000E+00 5.00000E+00
 -1       123 5.00000E-01 0.00000E+00 5.50000E+00
 -1       124 2.50000E-01 0.00000E+00 6.00000E+00
 -1       125 5.00000E-01 0.00000E+00 6.00000E+00
 -1       126 7.50000E-01 0.00000E+00 6.00000E+00
 -1       127 5.00000E-01 0.00000E+00 6.50000E+00
 -1       128 2.50000E-01 0.00000E+00 7.00000E+00
 -1       129 5.00000E-01 0.00000E+00 7.00000E+00
 -1       130 7.50000E-01 0.00000E+00 7.00000E+00
 -1       131 5.00000E-01 0.00000E+00 7.50000E+00
 -1       132 1.00000E+00 7.50000E-01 5.00000E-01
 -1       133 1.00000E+00 3.75000E-01 1.00000E+00
 -1       134 1.00000E+00 7.50000E-01 1.00000E+00
 -1       135 1.00000E+00 1.12500E+00 1.00000E+00
 -1       136 1.00000E+00 7.50000E-01 1.50000E+00
 -1       137 1.00000E+00 3.75000E-01 2.00000E+00
 -1       138 1.00000E+00 7.50000E-01 2.00000E+00
 -1       139 1.00000E+00 1.12500E+00 2.00000E+00
 -1       140 1.00000E+00 7.50000E-01 2.50000E+00
 -1       141 1.00000E+00 3.75000E-01 3.00000E+00
 -1       142 1.00000E+00 7.50000E-01 3.00000E+00
 -1       143 1.00000E+00 1.12500E+00 3.00000E+00
 -1       144 1.00000E+00 7.50000E-01 3.50000E+00
 -1       145 1.00000E+00 3.75000E-01 4.00000E+00
 -1       146 1.00000E+00 7.50000E-01 4.00000E+00
 -1       147 1.00000E+00 1.12500E+00 4.00000E+00
 -1       148 1.00000E+00 7.50000E-01 4.50000E+00
 -1       149 1.00000E+00 3.75000E-01 5.00000E+00
 -1       150 1.00000E+00 7.50000E-01 5.00000E+00
 -1       151 1.00000E+00 1.12500E+00 5.00000E+00
 -1       152 1.00000E+00 7.50000E-01 5.50000E+00
 -1       153 1.00000E+00 3.75000E-01 6.00000E+00
 -1       154 1.00000E+00 7.50000E-01 6.00000E+00
 -1       155 1.00000E+00 1.12500E+00 6.00000E+00
 -1       156 1.00000E+00 7.50000E-01 6.50000E+00
 -1       157 1.00000E+00 3.75000E-01 7.00000E+00
 -1       158 1.00000E+00 7.50000E-01 7.00000E+00
 -1       159 1.00000E+00 1.12500E+00 7.00000E+00
 -1       160 1.00000E+00 7.50000E-01 7.50000E+00
 -1       161 5.00000E-01 1.50000E+00 5.00000E-01
 -1       162 7.50000E-01 1.50000E+00 1.00000E+00
 -1       163 5.00000E-01 1.50000E+00 1.00000E+00
 -1       164 2.50000E-01 1.50000E+00 1.00000E+00
 -1       165 5.00000E-01 1.50000E+00 1.50000E+00
 -1       166 7.50000E-01 1.50000E+00 2.00000E+00
 -1       167 5.00000E-01 1.50000E+00 2.00000E+00
 -1       168 2.50000E-01 1.50000E+00 2.00000E+00
 -1       169 5.00000E-01 1.50000E+00 2.50000E+00
 -1       170 7.50000E-01 1.50000E+00 3.00000E+00
 -1       171 5.00000E-01 1.50000E+00 3.00000E+00
 -1       172 2.50000E-01 1.50000E+00 3.00000E+00
 -1       173 5.00000E-01 1.50000E+00 3.50000E+00
 -1       174 7.50000E-01 1.50000E+00 4.00000E+00
 -1       175 5.00000E-01 1.50000E+00 4.00000E+00
 -1       176 2.50000E-01 1.50000E+00 4.00000E+00
 -1       177 5.00000E-01 1.50000E+00 4.50000E+00
 -1       178 7.50000E-01 1.50000E+00 5.00000E+00
 -1       179 5.00000E-01 1.50000E+00 5.00000E+00
 -1       180 2.50000E-01 1.50000E+00 5.00000E+00
 -1       181 5.00000E-01 1.50000E+00 5.50000E+00
 -1       182 7.50000E-01 1.50000E+00 6.00000E+00
 -1       183 5.00000E-01 1.50000E+00 6.00000E+00
 -1       184 2.50000E-01 1.50000E+00 6.00000E+00
 -1       185 5.00000E-01 1.50000E+00 6.50000E+00
 -1       186 7.50000E-01 1.50000E+00 7.00000E+00
 -1       187 5.00000E-01 1.50000E+00 7.00000E+00
 -1       188 2.50000E-01 1.50000E+00 7.00000E+00
 -1       189 5.00000E-01 1.50000E+00 7.50000E+00
 -1       190 0.00000E+00 7.50000E-01 5.00000E-01
 -1       191 0.00000E+00 1.12500E+00 1.00000E+00
 -1       192 0.00000E+00 7.50000E-01 1.00000E+00
 -1       193 0.00000E+00 3.75000E-01 1.00000E+00
 -1       194 0.00000E+00 7.50000E-01 1.50000E+00
 -1       195 0.00000E+00 1.12500E+00 2.00000E+00
 -1       196 0.00000E+00 7.50000E-01 2.00000E+00
 -1       197 0.00000E+00 3.75000E-01 2.00000E+00
 -1       198 0.00000E+00 7.50000E-01 2.50000E+00
 -1       199 0.00000E+00 1.12500E+00 3.00000E+00
 -1       200 0.00000E+00 7.50000E-01 3.00000E+00
 -1       201 0.00000E+00 3.75000E-01 3.00000E+00
 -1       202 0.00000E+00 7.50000E-01 3.50000E+00
 -1       203 0.00000E+00 1.12500E+00 4.00000E+00
 -1       204 0.00000E+00 7.50000E-01 4.00000E+00
 -1       205 0.00000E+00 3.75000E-01 4.00000E+00
 -1       206 0.00000E+00 7.50000E-01 4.50000E+00
 -1       207 0.00000E+00 1.12500E+00 5.00000E+00
 -1       208 0.00000E+00 7.50000E-01 5.00000E+00
 -1       209 0.00000E+00 3.75000E-01 5.00000E+00
 -1       210 0.00000E+00 7.50000E-01 5.50000E+00
 -1       211 0.00000E+00 1.12500E+00 6.00000E+00
 -1       212 0.00000E+00 7.50000E-01 6.00000E+00
 -1       213 0.00000E+00 3.75000E-01 6.00000E+00
 -1       214 0.00000E+00 7.50000E-01 6.50000E+00
 -1       215 0.00000E+00 1.12500E+00 7.00000E+00
 -1       216 0.00000E+00 7.50000E-01 7.00000E+00
 -1       217 0.00000E+00 3.75000E-01 7.00000E+00
 -1       218 0.00000E+00 7.50000E-01 7.50000E+00
 -1       219 5.00000E-01 7.50000E-01 5.00000E-01
 -1       220 5.00000E-01 3.75000E-01 1.00000E+00
 -1       221 2.50000E-01 7.50000E-01 1.00000E+00
 -1       222 5.00000E-01 7.50000E-01 1.00000E+00
 -1       223 7.50000E-01 7.50000E-01 1.00000E+00
 -1       224 5.00000E-01 1.12500E+00 1.00000E+00
 -1       225 5.00000E-01 7.50000E-01 1.50000E+00
 -1       226 5.00000E-01 3.75000E-01 2.00000E+00
 -1       227 2.50000E-01 7.50000E-01 2.00000E+00
 -1       228 5.00000E-01 7.50000E-01 2.00000E+00
 -1       229 7.50000E-01 7.50000E-01 2.00000E+00
 -1       230 5.00000E-01 1.12500E+00 2.00000E+00
 -1       231 5.00000E-01 7.50000E-01 2.50000E+00
 -1       232 5.00000E-01 3.75000E-01 3.00000E+00
 -1       233 2.50000E-01 7.50000E-01 3.00000E+00
 -1       234 5.00000E-01 7.50000E-01 3.00000E+00
 -1       235 7.50000E-01 7.50000E-01 3.00000E+00
 -1       236 5.00000E-01 1.12500E+00 3.00000E+00
 -1       237 5.00000E-01 7.50000E-01 3.50000E+00
 -1       238 5.00000E-01 3.75000E-01 4.00000E+00
 -1       239 2.50000E-01 7.50000E-01 4.00000E+00
 -1       240 5.00000E-01 7.50000E-01 4.00000E+00
 -1       241 7.50000E-01 7.50000E-01 4.00000E+00
 -1       242 5.00000E-01 1.12500E+00 4.00000E+00
 -1       243 5.00000E-01 7.50000E-01 4.50000E+00
 -1       244 5.00000E-01 3.75000E-01 5.00000E+00
 -1       245 2.50000E-01 7.50000E-01 5.00000E+00
 -1       246 5.00000E-01 7.50000E-01 5.00000E+00
 -1       247 7.50000E-01 7.50000E-01 5.00000E+00
 -1       248 5.00000E-01 1.12500E+00 5.00000E+00
 -1       249 5.00000E-01 7.50000E-01 5.50000E+00
 -1       250 5.00000E-01 3.75000E-01 6.00000E+00
 -1       251 2.50000E-01 7.50000E-01 6.00000E+00
 -1       252 5.00000E-01 7.50000E-01 6.00000E+00
 -1       253 7.50000E-01 7.50000E-01 6.00000E+00
 -1       254 5.00000E-01 1.12500E+00 6.00000E+00
 -1       255 5.00000E-01 7.50000E-01 6.50000E+00
 -1       256 5.00000E-01 3.75000E-01 7.00000E+00
 -1       257 2.50000E-01 7.50000E-01 7.00000E+00
 -1       258 5.00000E-01 7.50000E-01 7.00000E+00
 -1       259 7.50000E-01 7.50000E-01 7.00000E+00
 -1       260 5.00000E-01 1.12500E+00 7.00000E+00
 -1       261 5.00000E-01 7.50000E-01 7.50000E+00
 -3
    3C                            32                                     1
 -1         1    4    0    1
 -2         1        10        95        19        61       105       222       192         9        93
 -2        94        20        62       103       219       190       104       220       221       193
 -1         2    4    0    1
 -2        10         2        13        95       105        34       134       222        11        12
 -2        96        93       103        33       132       219       106       133       223       220
 -1         3    4    0    1
 -2        19        95        16         4       192       222       163        79        94        97
 -2        17        18       190       219       161        78       221       224       164       191
 -1         4    4    0    1
 -2        95        13         3        16       222       134        64       163        96        14
 -2        15        97       219       132        63       161       223       135       162       224
 -1         5    4    0    1
 -2        61       105       222       192        59       109       228       196       104       220
 -2       221       193        60       107       225       194       108       226       227       197
 -1         6    4    0    1
 -2       105        34       134       222       109        36       138       228       106       133
 -2       223       220       107        35       136       225       110       137       229       226
 -1         7    4    0    1
 -2       192       222       163        79       196       228       167        81       221       224
 -2       164       191       194       225       165        80       227       230       168       195
 -1         8    4    0    1
 -2       222       134        64       163       228       138        66       167       223       135
 -2       162       224       225       136        65       165       229       139       166       230
 -1         9    4    0    1
 -2        59       109       228       196        57       113       234       200       108       226
 -2       227       197        58       111       231       198       112       232       233       201
 -1        10    4    0    1
 -2       109        36       138       228       113        38       142       234       110       137
 -2       229       226       111        37       140       231       114       141       235       232
 -1        11    4    0    1
 -2       196       228       167        81       200       234       171        83       227       230
 -2       168       195       198       231       169        82       233       236       172       199
 -1        12    4    0    1
 -2       228       138        66       167       234       142        68       171       229       139
 -2       166       230       231       140        67       169       235       143       170       236
 -1        13    4    0    1
 -2        57       113       234       200        55       117       240       204       112       232
 -2       233       201        56       115       237       202       116       238       239       205
 -1        14    4    0    1
 -2       113        38       142       234       117        40       146       240       114       141
 -2       235       232       115        39       144       237       118       145       241       238
 -1        15    4    0    1
 -2       200       234       171        83       204       240       175        85       233       236
 -2       172       199       202       237       173        84       239       242       176       203
 -1        16    4    0    1
 -2       234       142        68       171       240       146        70       175       235       143
 -2       170       236       237       144        69       173       241       147       174       242
 -1        17    4    0    1
 -2        55       117       240       204        53       121       246       208       116       238
 -2       239       205        54       119       243       206       120       244       245       209
 -1        18    4    0    1
 -2       117        40       146       240       121        42       150       246       118       145
 -2       241       238       119        41       148       243       122       149       247       244
 -1        19    4    0    1
 -2       204       240       175        85       208       246       179        87       239       242
 -2       176       203       206       243       177        86       245       248       180       207
 -1        20    4    0    1
 -2       240       146        70       175       246       150        72       179       241       147
 -2       174       242       243       148        71       177       247       151       178       248
 -1        21    4    0    1
 -2        53       121       246       208        51       125       252       212       120       244
 -2       245       209        52       123       249       210       124       250       251       213
 -1        22    4    0    1
 -2       121        42       150       246       125        44       154       252       122       149
 -2       247       244       123        43       152       249       126       153       253       250
 -1        23    4    0    1
 -2       208       246       179        87       212       252       183        89       245       248
 -2       180       207       210       249       181        88       251       254       184       211
 -1        24    4    0    1
 -2       246       150        72       179       252       154        74       183       247       151
 -2       178       248       249       152        73       181       253       155       182       254
 -1        25    4    0    1
 -2        51       125       252       212        49       129       258       216       124       250
 -2       251       213        50       127       255       214       128       256       257       217
 -1        26    4    0    1
 -2       125        44       154       252       129        46       158       258       126       153
 -2       253       250       127        45       156       255       130       157       259       256
 -1        27    4    0    1
 -2       212       252       183        89       216       258       187        91       251       254
 -2       184       211       214       255       185        90       257       260       188       215
 -1        28    4    0    1
 -2       252       154        74       183       258       158        76       187       253       155
 -2       182       254       255       156        75       185       259       159       186       260
 -1        29    4    0    1
 -2        49       129       258       216         5        22       100        31       128       256
 -2       257       217        48       131       261       218        21        98        99        32
 -1        30    4    0    1
 -2       129        46       158       258        22         6        25       100       130       157
 -2       259       256       131        47       160       261        23        24       101        98
 -1        31    4    0    1
 -2       216       258       187        91        31       100        28         8       257       260
 -2       188       215       218       261       189        92        99       102        29        30
 -1        32    4    0    1
 -2       258       158        76       187       100        25         7        28       259       159
 -2       186       260       261       160        77       189       101        26        27       102
 -3
    1PSTEP                         1           1           1          
    1PGM                1.000000E+00                                  
    1PGK                6.770787E+03                                  
    1PHID                         -1                                  
    1PSUBC                         0                                  
    1PMODE                         1                                  
  100CL  101 1.30960E+01         261                     2    1MODAL      1
 -4  DISP        4    1
 -5  D1          1    2    1    0
 -5  D2          1    2    2    0
 -5  D3          1    2    3    0
 -5  ALL         1    2    0    0    1ALL
 -1         1 0.00000E+00 0.00000E+00 0.00000E+00
 -1         2 0.00000E+00 0.00000E+00 0.00000E+00
 -1         3 0.00000E+00 0.00000E+00 0.00000E+00
 -1         4 0.00000E+00 0.00000E+00 0.00000E+00
 -1         5 6.50937E-03 8.56376E-08 5.55963E-04
 -1         6 6.50937E-03-8.56376E-08-5.55963E-04
 -1         7 6.50937E-03 8.56376E-08-5.55963E-04
 -1         8 6.50937E-03-8.56376E-08 5.55963E-04
 -1         9 0.00000E+00 0.00000E+00 0.00000E+00
 -1        10 0.00000E+00 0.00000E+00 0.00000E+00
 -1        11 0.00000E+00 0.00000E+00 0.00000E+00
 -1        12 0.00000E+00 0.00000E+00 0.00000E+00
 -1        13 0.00000E+00 0.00000E+00 0.00000E+00
 -1        14 0.00000E+00 0.00000E+00 0.00000E+00
 -1        15 0.00000E+00 0.00000E+00 0.00000E+00
 -1        16 0.00000E+00 0.00000E+00 0.00000E+00
 -1        17 0.00000E+00 0.00000E+00 0.00000E+00
 -1        18 0.00000E+00 0.00000E+00 0.00000E+00
 -1        19 0.00000E+00 0.00000E+00 0.00000E+00
 -1        20 0.00000E+00 0.00000E+00 0.00000E+00
 -1        21 6.50936E-03 2.58666E-08 2.77952E-04
 -1        22 6.50931E-03 4.13493E-15 5.48464E-16
 -1        23 6.50936E-03-2.58666E-08-2.77952E-04
 -1        24 6.50948E-03-7.76070E-08-5.56058E-04
 -1        25 6.50959E-03 3.98271E-15-5.56109E-04
 -1        26 6.50948E-03 7.76070E-08-5.56058E-04
 -1        27 6.50936E-03 2.58666E-08-2.77952E-04
 -1        28 6.50931E-03 4.13168E-15-5.51479E-16
 -1        29 6.50936E-03-2.58666E-08 2.77952E-04
 -1        30 6.50948E-03-7.76070E-08 5.56058E-04
 -1        31 6.50959E-03 4.29409E-15 5.56109E-04
 -1        32 6.50948E-03 7.76070E-08 5.56058E-04
 -1        33 4.33237E-05-3.13398E-05-7.84601E-05
 -1        34 1.57954E-04-2.95062E-05-1.56649E-04
 -1        35 3.61356E-04-3.00866E-05-2.27101E-04
 -1        36 6.26022E-04-2.61793E-05-2.90133E-04
 -1        37 9.53975E-04-2.32576E-05-3.45065E-04
 -1        38 1.33067E-03-1.99051E-05-3.93347E-04
 -1        39 1.75309E-03-1.68961E-05-4.34150E-04
 -1        40 2.21170E-03-1.38129E-05-4.68184E-04
 -1        41 2.70107E-03-1.10084E-05-4.95563E-04
 -1        42 3.21392E-03-8.39152E-06-5.16979E-04
 -1        43 3.74484E-03-6.08036E-06-5.32823E-04
 -1        44 4.28833E-03-4.06017E-06-5.43853E-04
 -1        45 4.83984E-03-2.41732E-06-5.50746E-04
 -1        46 5.39563E-03-1.17232E-06-5.54434E-04
 -1        47 5.95269E-03-4.21470E-07-5.55814E-04
 -1        48 5.95269E-03 4.21470E-07 5.55814E-04
 -1        49 5.39563E-03 1.17232E-06 5.54434E-04
 -1        50 4.83984E-03 2.41732E-06 5.50746E-04
 -1        51 4.28833E-03 4.06017E-06 5.43853E-04
 -1        52 3.74484E-03 6.08036E-06 5.32823E-04
 -1        53 3.21392E-03 8.39152E-06 5.16979E-04
 -1        54 2.70107E-03 1.10084E-05 4.95563E-04
 -1        55 2.21170E-03 1.38129E-05 4.68184E-04
 -1        56 1.75309E-03 1.68961E-05 4.34150E-04
 -1        57 1.33067E-03 1.99051E-05 3.93347E-04
 -1        58 9.53975E-04 2.32576E-05 3.45065E-04
 -1        59 6.26022E-04 2.61793E-05 2.90133E-04
 -1        60 3.61356E-04 3.00866E-05 2.27101E-04
 -1        61 1.57954E-04 2.95062E-05 1.56649E-04
 -1        62 4.33237E-05 3.13398E-05 7.84601E-05
 -1        63 4.33237E-05 3.13398E-05-7.84601E-05
 -1        64 1.57954E-04 2.95062E-05-1.56649E-04
 -1        65 3.61356E-04 3.00866E-05-2.27101E-04
 -1        66 6.26022E-04 2.61793E-05-2.90133E-04
 -1        67 9.53975E-04 2.32576E-05-3.45065E-04
 -1        68 1.33067E-03 1.99051E-05-3.93347E-04
 -1        69 1.75309E-03 1.68961E-05-4.34150E-04
 -1        70 2.21170E-03 1.38129E-05-4.68184E-04
 -1        71 2.70107E-03 1.10084E-05-4.95563E-04
 -1        72 3.21392E-03 8.39152E-06-5.16979E-04
 -1        73 3.74484E-03 6.08036E-06-5.32823E-04
 -1        74 4.28833E-03 4.06017E-06-5.43853E-04
 -1        75 4.83984E-03 2.41732E-06-5.50746E-04
 -1        76 5.39563E-03 1.17232E-06-5.54434E-04
 -1        77 5.95269E-03 4.21470E-07-5.55814E-04
 -1        78 4.33237E-05-3.13398E-05 7.84601E-05
 -1        79 1.57954E-04-2.95062E-05 1.56649E-04
 -1        80 3.61356E-04-3.00866E-05 2.27101E-04
 -1        81 6.26022E-04-2.61793E-05 2.90133E-04
 -1        82 9.53975E-04-2.32576E-05 3.45065E-04
 -1        83 1.33067E-03-1.99051E-05 3.93347E-04
 -1        84 1.75309E-03-1.68961E-05 4.34150E-04
 -1        85 2.21170E-03-1.38129E-05 4.68184E-04
 -1        86 2.70107E-03-1.10084E-05 4.95563E-04
 -1        87 3.21392E-03-8.39152E-06 5.16979E-04
 -1        88 3.74484E-03-6.08036E-06 5.32823E-04
 -1        89 4.28833E-03-4.06017E-06 5.43853E-04
 -1        90 4.83984E-03-2.41732E-06 5.50746E-04
 -1        91 5.39563E-03-1.17232E-06 5.54434E-04
 -1        92 5.95269E-03-4.21470E-07 5.55814E-04
 -1        93 0.00000E+00 0.00000E+00 0.00000E+00
 -1        94 0.00000E+00 0.00000E+00 0.00000E+00
 -1        95 0.00000E+00 0.00000E+00 0.00000E+00
 -1        96 0.00000E+00 0.00000E+00 0.00000E+00
 -1        97 0.00000E+00 0.00000E+00 0.00000E+00
 -1        98 6.50942E-03 4.14013E-15 2.73916E-16
 -1        99 6.50961E-03 4.21494E-15 2.78042E-04
 -1       100 6.50958E-03 4.14144E-15-2.60209E-18
 -1       101 6.50961E-03 4.06229E-15-2.78042E-04
 -1       102 6.50942E-03 4.13580E-15-2.79223E-16
 -1       103 2.63519E-05 4.17621E-17 6.51267E-17
 -1       104 1.51698E-04 1.50721E-05 7.76001E-05
 -1       105 1.52860E-04 1.12472E-16 1.37124E-16
 -1       106 1.51698E-04-1.50721E-05-7.76001E-05
 -1       107 3.49578E-04 2.31179E-16 1.97555E-16
 -1       108 6.20937E-04 1.30230E-05 1.43556E-04
 -1       109 6.19797E-04 3.87169E-16 2.55181E-16
 -1       110 6.20937E-04-1.30230E-05-1.43556E-04
 -1       111 9.45468E-04 5.80211E-16 3.07575E-16
 -1       112 1.32608E-03 9.97032E-06 1.95458E-04
 -1       113 1.32495E-03 8.07405E-16 3.54927E-16
 -1       114 1.32608E-03-9.97032E-06-1.95458E-04
 -1       115 1.74722E-03 1.06143E-15 3.95774E-16
 -1       116 2.20845E-03 6.89829E-06 2.32917E-04
 -1       117 2.20745E-03 1.34159E-15 4.32678E-16
 -1       118 2.20845E-03-6.89829E-06-2.32917E-04
 -1       119 2.69728E-03 1.64495E-15 4.62765E-16
 -1       120 3.21189E-03 4.19293E-06 2.57522E-04
 -1       121 3.21124E-03 1.96642E-15 4.88121E-16
 -1       122 3.21189E-03-4.19293E-06-2.57522E-04
 -1       123 3.74277E-03 2.30968E-15 5.13620E-16
 -1       124 4.28736E-03 2.02335E-06 2.71199E-04
 -1       125 4.28701E-03 2.66237E-15 5.32641E-16
 -1       126 4.28736E-03-2.02335E-06-2.71199E-04
 -1       127 4.83900E-03 3.03100E-15 5.41362E-16
 -1       128 5.39536E-03 5.81268E-07 2.76821E-04
 -1       129 5.39522E-03 3.39681E-15 5.46553E-16
 -1       130 5.39536E-03-5.81268E-07-2.76821E-04
 -1       131 5.95255E-03 3.77411E-15 5.46458E-16
 -1       132 6.19923E-05 5.80726E-18-7.71510E-05
 -1       133 1.76750E-04-1.39396E-05-1.56808E-04
 -1       134 1.81304E-04 7.51488E-17-1.58421E-04
 -1       135 1.76750E-04 1.39396E-05-1.56808E-04
 -1       136 3.83338E-04 1.78649E-16-2.27341E-04
 -1       137 6.40826E-04-1.32347E-05-2.91193E-04
 -1       138 6.46211E-04 3.27700E-16-2.90367E-04
 -1       139 6.40826E-04 1.32347E-05-2.91193E-04
 -1       140 9.71260E-04 5.12177E-16-3.45441E-04
 -1       141 1.34206E-03-9.91481E-06-3.94059E-04
 -1       142 1.34582E-03 7.32270E-16-3.93770E-04
 -1       143 1.34206E-03 9.91481E-06-3.94059E-04
 -1       144 1.76573E-03 9.81203E-16-4.34508E-04
 -1       145 2.21950E-03-6.92552E-06-4.68930E-04
 -1       146 2.22216E-03 1.25518E-15-4.68508E-04
 -1       147 2.21950E-03 6.92552E-06-4.68930E-04
 -1       148 2.70933E-03 1.54770E-15-4.95881E-04
 -1       149 3.21867E-03-4.20669E-06-5.17578E-04
 -1       150 3.22028E-03 1.85680E-15-5.17264E-04
 -1       151 3.21867E-03 4.20669E-06-5.17578E-04
 -1       152 3.74944E-03 2.18250E-15-5.33076E-04
 -1       153 4.29063E-03-2.04852E-06-5.44309E-04
 -1       154 4.29144E-03 2.51904E-15-5.44061E-04
 -1       155 4.29063E-03 2.04852E-06-5.44309E-04
 -1       156 4.84171E-03 2.87747E-15-5.50917E-04
 -1       157 5.39631E-03-6.09428E-07-5.54680E-04
 -1       158 5.39659E-03 3.24155E-15-5.54550E-04
 -1       159 5.39631E-03 6.09428E-07-5.54680E-04
 -1       160 5.95307E-03 3.60822E-15-5.55902E-04
 -1       161 2.63519E-05 4.16876E-17-6.48014E-17
 -1       162 1.51698E-04 1.50721E-05-7.76001E-05
 -1       163 1.52860E-04 1.12350E-16-1.36596E-16
 -1       164 1.51698E-04-1.50721E-05 7.76001E-05
 -1       165 3.49578E-04 2.31125E-16-1.97135E-16
 -1       166 6.20937E-04 1.30230E-05-1.43556E-04
 -1       167 6.19797E-04 3.88036E-16-2.54733E-16
 -1       168 6.20937E-04-1.30230E-05 1.43556E-04
 -1       169 9.45468E-04 5.80211E-16-3.05582E-16
 -1       170 1.32608E-03 9.97032E-06-1.95458E-04
 -1       171 1.32495E-03 8.06104E-16-3.52583E-16
 -1       172 1.32608E-03-9.97032E-06 1.95458E-04
 -1       173 1.74722E-03 1.06154E-15-3.96167E-16
 -1       174 2.20845E-03 6.89829E-06-2.32917E-04
 -1       175 2.20745E-03 1.34278E-15-4.32163E-16
 -1       176 2.20845E-03-6.89829E-06 2.32917E-04
 -1       177 2.69728E-03 1.64549E-15-4.65340E-16
 -1       178 3.21189E-03 4.19293E-06-2.57522E-04
 -1       179 3.21124E-03 1.96804E-15-4.93935E-16
 -1       180 3.21189E-03-4.19293E-06 2.57522E-04
 -1       181 3.74277E-03 2.31130E-15-5.14617E-16
 -1       182 4.28736E-03 2.02335E-06-2.71199E-04
 -1       183 4.28701E-03 2.66931E-15-5.29714E-16
 -1       184 4.28736E-03-2.02335E-06 2.71199E-04
 -1       185 4.83900E-03 3.02666E-15-5.42887E-16
 -1       186 5.39536E-03 5.81268E-07-2.76821E-04
 -1       187 5.39522E-03 3.39811E-15-5.50205E-16
 -1       188 5.39536E-03-5.81268E-07 2.76821E-04
 -1       189 5.95255E-03 3.76760E-15-5.50964E-16
 -1       190 6.19923E-05 2.77859E-17 7.71510E-05
 -1       191 1.76750E-04-1.39396E-05 1.56808E-04
 -1       192 1.81304E-04 1.16769E-16 1.58421E-04
 -1       193 1.76750E-04 1.39396E-05 1.56808E-04
 -1       194 3.83338E-04 2.42875E-16 2.27341E-04
 -1       195 6.40826E-04-1.32347E-05 2.91193E-04
 -1       196 6.46211E-04 4.12946E-16 2.90367E-04
 -1       197 6.40826E-04 1.32347E-05 2.91193E-04
 -1       198 9.71260E-04 6.15610E-16 3.45441E-04
 -1       199 1.34206E-03-9.91481E-06 3.94059E-04
 -1       200 1.34582E-03 8.51695E-16 3.93770E-04
 -1       201 1.34206E-03 9.91481E-06 3.94059E-04
 -1       202 1.76573E-03 1.11711E-15 4.34508E-04
 -1       203 2.21950E-03-6.92552E-06 4.68930E-04
 -1       204 2.22216E-03 1.40805E-15 4.68508E-04
 -1       205 2.21950E-03 6.92552E-06 4.68930E-04
 -1       206 2.70933E-03 1.72572E-15 4.95881E-04
 -1       207 3.21867E-03-4.20669E-06 5.17578E-04
 -1       208 3.22028E-03 2.06335E-15 5.17264E-04
 -1       209 3.21867E-03 4.20669E-06 5.17578E-04
 -1       210 3.74944E-03 2.42634E-15 5.33076E-04
 -1       211 4.29063E-03-2.04852E-06 5.44309E-04
 -1       212 4.29144E-03 2.80277E-15 5.44061E-04
 -1       213 4.29063E-03 2.04852E-06 5.44309E-04
 -1       214 4.84171E-03 3.17476E-15 5.50917E-04
 -1       215 5.39631E-03-6.09428E-07 5.54680E-04
 -1       216 5.39659E-03 3.54773E-15 5.54550E-04
 -1       217 5.39631E-03 6.09428E-07 5.54680E-04
 -1       218 5.95307E-03 3.92373E-15 5.55902E-04
 -1       219 4.48405E-05 2.34662E-17 6.60686E-20
 -1       220 1.71510E-04 1.02023E-16 6.68546E-17
 -1       221 1.74143E-04 1.11293E-16 7.77107E-05
 -1       222 1.74961E-04 1.01373E-16 2.57498E-19
 -1       223 1.74143E-04 9.03547E-17-7.77107E-05
 -1       224 1.71510E-04 1.01956E-16-6.63464E-17
 -1       225 3.71327E-04 2.17193E-16 4.13352E-19
 -1       226 6.34256E-04 3.78170E-16 1.26635E-16
 -1       227 6.40942E-04 3.95029E-16 1.44367E-04
 -1       228 6.39498E-04 3.74917E-16 9.89334E-19
 -1       229 6.40942E-04 3.52474E-16-1.44367E-04
 -1       230 6.34256E-04 3.78712E-16-1.25252E-16
 -1       231 9.63012E-04 5.69315E-16 5.55654E-19
 -1       232 1.33624E-03 7.98840E-16 1.75939E-16
 -1       233 1.34109E-03 8.24807E-16 1.96089E-04
 -1       234 1.33985E-03 7.96021E-16 1.48400E-18
 -1       235 1.34109E-03 7.65121E-16-1.96089E-04
 -1       236 1.33624E-03 7.99003E-16-1.74421E-16
 -1       237 1.75992E-03 1.05265E-15 1.62630E-18
 -1       238 2.21521E-03 1.33780E-15 2.16014E-16
 -1       239 2.21888E-03 1.37271E-15 2.33521E-04
 -1       240 2.21784E-03 1.33617E-15 8.94467E-19
 -1       241 2.21888E-03 1.29681E-15-2.33521E-04
 -1       242 2.21521E-03 1.33617E-15-2.14279E-16
 -1       243 2.70561E-03 1.63921E-15-1.19940E-18
 -1       244 3.21598E-03 1.96273E-15 2.44426E-16
 -1       245 3.21826E-03 2.01369E-15 2.58023E-04
 -1       246 3.21760E-03 1.96132E-15-1.21973E-18
 -1       247 3.21826E-03 1.91058E-15-2.58023E-04
 -1       248 3.21598E-03 1.96219E-15-2.43390E-16
 -1       249 3.74741E-03 2.30686E-15-1.70084E-18
 -1       250 4.28931E-03 2.66052E-15 2.62516E-16
 -1       251 4.29049E-03 2.73284E-15 2.71573E-04
 -1       252 4.29015E-03 2.66215E-15-1.56532E-18
 -1       253 4.29049E-03 2.59168E-15-2.71573E-04
 -1       254 4.28931E-03 2.66464E-15-2.65535E-16
 -1       255 4.84092E-03 3.02644E-15-6.43745E-19
 -1       256 5.39592E-03 3.39485E-15 2.71076E-16
 -1       257 5.39635E-03 3.47270E-15 2.77026E-04
 -1       258 5.39624E-03 3.39615E-15-3.08320E-18
 -1       259 5.39635E-03 3.32004E-15-2.77026E-04
 -1       260 5.39592E-03 3.39594E-15-2.73056E-16
 -1       261 5.95297E-03 3.76543E-15-1.23328E-18
 -3
    1PSTEP                         2           1           1          
    1PGM                1.000000E+00                                  
    1PGK                6.770787E+03                                  
    1PHID                         -1                                  
    1PSUBC                         0                                  
    1PMODE                         1                                  
  100CL  101 1.30960E+01         261                     2    1MODAL      1
 -4  STRESS      6    1
 -5  SXX         1    4    1    1
 -5  SYY         1    4    2    2
 -5  SZZ         1    4    3    3
 -5  SXY         1    4    1    2
 -5  SYZ         1    4    2    3
 -5  SZX         1    4    3    1
 -1         1 1.17037E+07 1.24288E+07 4.00459E+07-1.28414E+06 7.55766E+06 1.40812E+06
 -1         2-1.17037E+07-1.24288E+07-4.00459E+07-1.28414E+06-7.55766E+06 1.40812E+06
 -1         3-1.17037E+07-1.24288E+07-4.00459E+07 1.28414E+06 7.55766E+06 1.40812E+06
 -1         4 1.17037E+07 1.24288E+07 4.00459E+07 1.28414E+06-7.55766E+06 1.40812E+06
 -1         5-2.38883E+04-3.16751E+03-1.76285E+05 4.03811E+03 2.44055E+03-9.28109E+03
 -1         6 2.38883E+04 3.16751E+03 1.76285E+05 4.03811E+03-2.44055E+03-9.28109E+03
 -1         7 2.38883E+04 3.16751E+03 1.76285E+05-4.03811E+03 2.44055E+03-9.28109E+03
 -1         8-2.38883E+04-3.16751E+03-1.76285E+05-4.03811E+03-2.44055E+03-9.28109E+03
 -1         9 3.10417E+06 5.02009E+06 1.87893E+07-1.26819E+06 3.78742E+06-1.11481E+06
 -1        10 7.59773E-06 9.10554E-06 3.06668E-05-1.25225E+06 4.49271E-06-3.63774E+06
 -1        11-3.10417E+06-5.02009E+06-1.87893E+07-1.26819E+06-3.78742E+06-1.11481E+06
 -1        12-1.13316E+07-1.20089E+07-3.90182E+07-3.91019E+05-3.67814E+06 3.59145E+06
 -1        13-1.09596E+07-1.15890E+07-3.79905E+07 4.97908E-07-4.44886E-06 5.77478E+06
 -1        14-1.13316E+07-1.20089E+07-3.90182E+07 3.91019E+05 3.67814E+06 3.59145E+06
 -1        15-3.10417E+06-5.02009E+06-1.87893E+07 1.26819E+06 3.78742E+06-1.11481E+06
 -1        16-7.52369E-06-9.02126E-06-3.04631E-05 1.25225E+06 4.49775E-06-3.63774E+06
 -1        17 3.10417E+06 5.02009E+06 1.87893E+07 1.26819E+06-3.78742E+06-1.11481E+06
 -1        18 1.13316E+07 1.20089E+07 3.90182E+07 3.91019E+05-3.67814E+06 3.59145E+06
 -1        19 1.09596E+07 1.15890E+07 3.79905E+07-8.65693E-07-5.13654E-07 5.77478E+06
 -1        20 1.13316E+07 1.20089E+07 3.90182E+07-3.91019E+05 3.67814E+06 3.59145E+06
 -1        21-2.61978E+04 2.48889E+03-6.55921E+04 1.16786E+04 1.49719E+03 9.17089E+03
 -1        22-6.43984E-06-6.32292E-07-7.62677E-07 1.93191E+04-1.03435E-06 2.76229E+04
 -1        23 2.61978E+04-2.48889E+03 6.55921E+04 1.16786E+04-1.49719E+03 9.17089E+03
 -1        24 2.25279E+04 4.13119E+04 1.74919E+05 4.07469E+03-3.73846E+03-8.37257E+03
 -1        25 2.11675E+04 7.94563E+04 1.73552E+05 2.26334E-07 1.21588E-06-7.46405E+03
 -1        26 2.25279E+04 4.13119E+04 1.74919E+05-4.07469E+03 3.73846E+03-8.37257E+03
 -1        27 2.61978E+04-2.48889E+03 6.55921E+04-1.16786E+04 1.49719E+03 9.17089E+03
 -1        28 8.75849E-06 2.80238E-06 2.16933E-06-1.93191E+04-4.04949E-07 2.76229E+04
 -1        29-2.61978E+04 2.48889E+03-6.55921E+04-1.16786E+04-1.49719E+03 9.17089E+03
 -1        30-2.25279E+04-4.13119E+04-1.74919E+05-4.07469E+03-3.73846E+03-8.37257E+03
 -1        31-2.11675E+04-7.94563E+04-1.73552E+05 6.91298E-07 6.84436E-07-7.46405E+03
 -1        32-2.25279E+04-4.13119E+04-1.74919E+05 4.07469E+03 3.73846E+03-8.37257E+03
 -1        33-3.43097E+06-3.77315E+06-3.48536E+07-7.39488E+05-2.10989E+06 7.95573E+04
 -1        34 2.88140E+06 2.78689E+06-3.02241E+07 3.34050E+05 1.54183E+06 2.64657E+05
 -1        35 5.84589E+05 4.33068E+05-2.78494E+07 2.77996E+05 1.40981E+05 5.49498E+05
 -1        36-3.66343E+05-1.98935E+05-2.49123E+07-2.19032E+05 2.46934E+05 1.08323E+04
 -1        37-2.54857E+05-1.84966E+05-2.17857E+07-5.51181E+04 1.22376E+05 3.58469E+05
 -1        38 2.35082E+05 1.30276E+05-1.86090E+07 3.82434E+04 2.37726E+05 2.75890E+05
 -1        39 3.47597E+04 3.55786E+04-1.57118E+07 1.77999E+04 1.86854E+05 3.44778E+05
 -1        40-7.40162E+03-1.23343E+04-1.28316E+07-1.22399E+04 1.67220E+05 2.52486E+05
 -1        41-1.22466E+04-9.78852E+03-1.02645E+07-1.81526E+03 1.51370E+05 2.77840E+05
 -1        42 3.16760E+04 1.22323E+04-7.70580E+06 3.83765E+03 1.48338E+05 2.41255E+05
 -1        43 1.23544E+04 5.26726E+03-5.65715E+06 2.79699E+03 1.25968E+05 2.22047E+05
 -1        44 1.50445E+04 4.13844E+03-3.61051E+06 6.25373E+02 1.06083E+05 1.79895E+05
 -1        45 1.47328E+04 3.43266E+03-2.23983E+06 2.93872E+03 8.36747E+04 1.46990E+05
 -1        46 1.80032E+04 6.12224E+03-8.75365E+05 2.14886E+03 5.90693E+04 1.04287E+05
 -1        47 1.91839E+04 6.12575E+03-3.41514E+05 2.47214E+03 2.58150E+04 4.95436E+04
 -1        48-1.91839E+04-6.12575E+03 3.41514E+05 2.47214E+03-2.58150E+04 4.95436E+04
 -1        49-1.80032E+04-6.12224E+03 8.75365E+05 2.14886E+03-5.90693E+04 1.04287E+05
 -1        50-1.47328E+04-3.43266E+03 2.23983E+06 2.93872E+03-8.36747E+04 1.46990E+05
 -1        51-1.50445E+04-4.13844E+03 3.61051E+06 6.25373E+02-1.06083E+05 1.79895E+05
 -1        52-1.23544E+04-5.26726E+03 5.65715E+06 2.79699E+03-1.25968E+05 2.22047E+05
 -1        53-3.16760E+04-1.22323E+04 7.70580E+06 3.83765E+03-1.48338E+05 2.41255E+05
 -1        54 1.22466E+04 9.78852E+03 1.02645E+07-1.81526E+03-1.51370E+05 2.77840E+05
 -1        55 7.40162E+03 1.23343E+04 1.28316E+07-1.22399E+04-1.67220E+05 2.52486E+05
 -1        56-3.47597E+04-3.55786E+04 1.57118E+07 1.77999E+04-1.86854E+05 3.44778E+05
 -1        57-2.35082E+05-1.30276E+05 1.86090E+07 3.82434E+04-2.37726E+05 2.75890E+05
 -1        58 2.54857E+05 1.84966E+05 2.17857E+07-5.51181E+04-1.22376E+05 3.58469E+05
 -1        59 3.66343E+05 1.98935E+05 2.49123E+07-2.19032E+05-2.46934E+05 1.08323E+04
 -1        60-5.84589E+05-4.33068E+05 2.78494E+07 2.77996E+05-1.40981E+05 5.49498E+05
 -1        61-2.88140E+06-2.78689E+06 3.02241E+07 3.34050E+05-1.54183E+06 2.64657E+05
 -1        62 3.43097E+06 3.77315E+06 3.48536E+07-7.39488E+05 2.10989E+06 7.95573E+04
 -1        63-3.43097E+06-3.77315E+06-3.48536E+07 7.39488E+05 2.10989E+06 7.95573E+04
 -1        64 2.88140E+06 2.78689E+06-3.02241E+07-3.34050E+05-1.54183E+06 2.64657E+05
 -1        65 5.84589E+05 4.33068E+05-2.78494E+07-2.77996E+05-1.40981E+05 5.49498E+05
 -1        66-3.66343E+05-1.98935E+05-2.49123E+07 2.19032E+05-2.46934E+05 1.08323E+04
 -1        67-2.54857E+05-1.84966E+05-2.17857E+07 5.51181E+04-1.22376E+05 3.58469E+05
 -1        68 2.35082E+05 1.30276E+05-1.86090E+07-3.82434E+04-2.37726E+05 2.75890E+05
 -1        69 3.47597E+04 3.55786E+04-1.57118E+07-1.77999E+04-1.86854E+05 3.44778E+05
 -1        70-7.40162E+03-1.23343E+04-1.28316E+07 1.22399E+04-1.67220E+05 2.52486E+05
 -1        71-1.22466E+04-9.78852E+03-1.02645E+07 1.81526E+03-1.51370E+05 2.77840E+05
 -1        72 3.16760E+04 1.22323E+04-7.70580E+06-3.83765E+03-1.48338E+05 2.41255E+05
 -1        73 1.23544E+04 5.26726E+03-5.65715E+06-2.79699E+03-1.25968E+05 2.22047E+05
 -1        74 1.50445E+04 4.13844E+03-3.61051E+06-6.25373E+02-1.06083E+05 1.79895E+05
 -1        75 1.47328E+04 3.43266E+03-2.23983E+06-2.93872E+03-8.36747E+04 1.46990E+05
 -1        76 1.80032E+04 6.12224E+03-8.75365E+05-2.14886E+03-5.90693E+04 1.04287E+05
 -1        77 1.91839E+04 6.12575E+03-3.41514E+05-2.47214E+03-2.58150E+04 4.95436E+04
 -1        78 3.43097E+06 3.77315E+06 3.48536E+07 7.39488E+05-2.10989E+06 7.95573E+04
 -1        79-2.88140E+06-2.78689E+06 3.02241E+07-3.34050E+05 1.54183E+06 2.64657E+05
 -1        80-5.84589E+05-4.33068E+05 2.78494E+07-2.77996E+05 1.40981E+05 5.49498E+05
 -1        81 3.66343E+05 1.98935E+05 2.49123E+07 2.19032E+05 2.46934E+05 1.08323E+04
 -1        82 2.54857E+05 1.84966E+05 2.17857E+07 5.51181E+04 1.22376E+05 3.58469E+05
 -1        83-2.35082E+05-1.30276E+05 1.86090E+07-3.82434E+04 2.37726E+05 2.75890E+05
 -1        84-3.47597E+04-3.55786E+04 1.57118E+07-1.77999E+04 1.86854E+05 3.44778E+05
 -1        85 7.40162E+03 1.23343E+04 1.28316E+07 1.22399E+04 1.67220E+05 2.52486E+05
 -1        86 1.22466E+04 9.78852E+03 1.02645E+07 1.81526E+03 1.51370E+05 2.77840E+05
 -1        87-3.16760E+04-1.22323E+04 7.70580E+06-3.83765E+03 1.48338E+05 2.41255E+05
 -1        88-1.23544E+04-5.26726E+03 5.65715E+06-2.79699E+03 1.25968E+05 2.22047E+05
 -1        89-1.50445E+04-4.13844E+03 3.61051E+06-6.25373E+02 1.06083E+05 1.79895E+05
 -1        90-1.47328E+04-3.43266E+03 2.23983E+06-2.93872E+03 8.36747E+04 1.46990E+05
 -1        91-1.80032E+04-6.12224E+03 8.75365E+05-2.14886E+03 5.90693E+04 1.04287E+05
 -1        92-1.91839E+04-6.12575E+03 3.41514E+05-2.47214E+03 2.58150E+04 4.95436E+04
 -1        93 3.04915E-06 2.88524E-06 1.44930E-05-3.59122E+05 1.99059E-06-1.43306E+06
 -1        94 2.78451E+06 4.60474E+06 1.77245E+07-3.10276E-07-5.06370E-07 3.27320E+06
 -1        95 1.69966E-08 1.30385E-08 3.02680E-08-1.77155E-07-5.02402E-07 7.71612E+05
 -1        96-2.78451E+06-4.60474E+06-1.77245E+07-5.08153E-08-2.47728E-06 3.27320E+06
 -1        97-2.99513E-06-2.82982E-06-1.43608E-05 3.59122E+05 2.00224E-06-1.43306E+06
 -1        98-1.44362E-06-1.11051E-06-6.64440E-08 1.93556E+04 5.84778E-07 1.81623E+04
 -1        99-2.40447E+04-3.83111E+04-7.38702E+04 1.99318E-06 9.10213E-07 6.18837E+02
 -1       100 4.19662E-06-1.12792E-06 4.08824E-07 3.44518E-06 1.31825E-06 8.70173E+03
 -1       101 2.40447E+04 3.83111E+04 7.38702E+04 1.91081E-06 1.35819E-06 6.18837E+02
 -1       102 6.79956E-06 1.06764E-06 1.17860E-06-1.93556E+04 1.38172E-08 1.81623E+04
 -1       103 2.41725E-06 3.13611E-06 3.02097E-05-8.77878E+05 1.39739E-06 1.62012E+05
 -1       104-5.80133E+05-1.07480E+06 1.54127E+07 1.83140E+05-7.99644E+05 1.27665E+06
 -1       105-1.11130E-06-1.92923E-06 2.78374E-05 3.22300E+04-5.25506E-07 2.28864E+06
 -1       106 5.80133E+05 1.07480E+06-1.54127E+07 1.83140E+05 7.99644E+05 1.27665E+06
 -1       107 1.08441E-07-6.20115E-07 2.47281E-05 1.48566E+05 3.76909E-07 1.87145E+06
 -1       108-1.86594E+05-5.78322E+04 1.22806E+07-2.01222E+05-1.02598E+05 1.25803E+06
 -1       109-3.84111E-07-3.18914E-08 2.31775E-05-1.83411E+05 1.35920E-07 2.50523E+06
 -1       110 1.86594E+05 5.78322E+04-1.22806E+07-2.01222E+05 1.02598E+05 1.25803E+06
 -1       111 3.49246E-10-2.07143E-07 2.07555E-05-3.37542E+04 1.41583E-07 2.16710E+06
 -1       112-9.47636E+04-5.33238E+04 9.32646E+06 3.47789E+04-1.03042E+05 1.23449E+06
 -1       113 1.48939E-07-9.02699E-07 1.82496E-05 3.13144E+04-1.62072E-08 2.19310E+06
 -1       114 9.47636E+04 5.33238E+04-9.32646E+06 3.47789E+04 1.03042E+05 1.23449E+06
 -1       115-6.21483E-07 9.60463E-08 1.64101E-05 1.35332E+04 1.01169E-07 2.00679E+06
 -1       116-3.53023E+04-6.85982E+03 6.40873E+06-7.82528E+03-6.80315E+04 1.11897E+06
 -1       117-1.83691E-06 9.41420E-07 1.41390E-05-3.41063E+03 3.88665E-07 1.98545E+06
 -1       118 3.53023E+04 6.85982E+03-6.40873E+06-7.82528E+03 6.80315E+04 1.11897E+06
 -1       119 6.44175E-07 1.25921E-06 1.25303E-05 4.78798E+03 5.89631E-07 1.78944E+06
 -1       120-2.29161E+04-3.69554E+03 3.86710E+06 6.88561E+03-6.12474E+04 9.45771E+05
 -1       121 3.07864E-06 1.99222E-06 1.22200E-05 9.93356E+03 1.33938E-06 1.65029E+06
 -1       122 2.29161E+04 3.69554E+03-3.86710E+06 6.88561E+03 6.12474E+04 9.45771E+05
 -1       123-2.30910E-06-3.04333E-07 7.86617E-06 9.78519E+03 1.82838E-07 1.42702E+06
 -1       124-1.81624E+04 6.69347E+02 1.82289E+06 5.28701E+03-4.33585E+04 7.03706E+05
 -1       125-6.86718E-06-3.10709E-06 2.32891E-06 9.94864E+03-2.46608E-07 1.22752E+06
 -1       126 1.81624E+04-6.69347E+02-1.82289E+06 5.28701E+03 4.33585E+04 7.03706E+05
 -1       127 4.01743E-07-1.06305E-06 3.08691E-06 1.22406E+04 1.30660E-07 9.46672E+05
 -1       128-1.85184E+04 1.41443E+03 4.60584E+05 6.93617E+03-2.44112E+04 3.90416E+05
 -1       129 5.62144E-06-4.44261E-07 2.24398E-06 1.17235E+04 1.22898E-06 6.76546E+05
 -1       130 1.85184E+04-1.41443E+03-4.60584E+05 6.93617E+03 2.44112E+04 3.90416E+05
 -1       131-1.41293E-06-1.54164E-06-4.38209E-07 1.45835E+04 1.11362E-06 3.51243E+05
 -1       132-3.60632E+06-4.93639E+06-3.55187E+07 3.25148E-07-2.05861E-06 1.79330E+06
 -1       133 2.72914E+06 1.60918E+06-3.09605E+07 5.36965E+04 5.97862E+05-1.88430E+05
 -1       134 2.57688E+06 4.31460E+05-3.16970E+07-1.04264E-07-1.27825E-06-6.41518E+05
 -1       135 2.72914E+06 1.60918E+06-3.09605E+07-5.36965E+04-5.97862E+05-1.88430E+05
 -1       136 7.20492E+05-2.92761E+05-2.79092E+07-1.49477E-07-1.68532E-06 2.06504E+05
 -1       137-4.02551E+05-8.24277E+04-2.50293E+07-4.53419E+04 2.91452E+05 2.53351E+04
 -1       138-4.38759E+05 3.40800E+04-2.51463E+07-1.17179E-08-9.26200E-07 3.98379E+04
 -1       139-4.02551E+05-8.24277E+04-2.50293E+07 4.53419E+04-2.91452E+05 2.53351E+04
 -1       140-2.65060E+05-5.76090E+04-2.17517E+07-2.84694E-07-8.20102E-07 2.48056E+05
 -1       141 2.27286E+05 8.62671E+04-1.86070E+07 5.18254E+03 1.89926E+05 1.96499E+05
 -1       142 2.19489E+05 4.22583E+04-1.86050E+07-2.60833E-07-4.43870E-07 1.17108E+05
 -1       143 2.27286E+05 8.62671E+04-1.86070E+07-5.18254E+03-1.89926E+05 1.96499E+05
 -1       144 4.78101E+04 2.39983E+04-1.56937E+07 4.65268E-07-9.07152E-07 1.87530E+05
 -1       145-1.22712E+04 1.00282E+04-1.28233E+07-2.60164E+03 1.75475E+05 1.93640E+05
 -1       146-1.71408E+04 3.23908E+04-1.28151E+07 1.01529E-06-1.39775E-06 1.34795E+05
 -1       147-1.22712E+04 1.00282E+04-1.28233E+07 2.60164E+03-1.75475E+05 1.93640E+05
 -1       148-1.19343E+04 3.38019E+04-1.02314E+07 5.33004E-07-2.40158E-06 1.54507E+05
 -1       149 3.04631E+04 2.96434E+04-7.68734E+06 1.75679E+03 1.43917E+05 1.85781E+05
 -1       150 2.92502E+04 4.70545E+04-7.66889E+06 3.96609E-08-3.27989E-06 1.30306E+05
 -1       151 3.04631E+04 2.96434E+04-7.68734E+06-1.75679E+03-1.43917E+05 1.85781E+05
 -1       152 1.40636E+04 5.15718E+04-5.61411E+06 3.78864E-07-3.59803E-06 1.22465E+05
 -1       153 1.46702E+04 3.18996E+04-3.58640E+06 1.39617E+03 1.07476E+05 1.38796E+05
 -1       154 1.42958E+04 5.96607E+04-3.56230E+06 4.97744E-07-2.64227E-06 9.76970E+04
 -1       155 1.46702E+04 3.18996E+04-3.58640E+06-1.39617E+03-1.07476E+05 1.38796E+05
 -1       156 1.37500E+04 6.63100E+04-2.18494E+06-3.15948E-07-4.39613E-07 8.10801E+04
 -1       157 1.81848E+04 4.24699E+04-8.41263E+05 2.30670E+03 5.87970E+04 8.10364E+04
 -1       158 1.83664E+04 7.88175E+04-8.07162E+05-1.02754E-06 6.82685E-08 5.77862E+04
 -1       159 1.81848E+04 4.24699E+04-8.41263E+05-2.30670E+03-5.87970E+04 8.10364E+04
 -1       160 2.03859E+04 8.20494E+04-3.06387E+05-4.41704E-07 3.93928E-07 2.62300E+04
 -1       161-2.27243E-06-3.02866E-06-3.00154E-05 8.77878E+05 1.40562E-06 1.62012E+05
 -1       162 5.80133E+05 1.07480E+06-1.54127E+07-1.83140E+05-7.99644E+05 1.27665E+06
 -1       163 1.58837E-06 2.11794E-06-2.75982E-05-3.22300E+04-5.75877E-07 2.28864E+06
 -1       164-5.80133E+05-1.07480E+06 1.54127E+07-1.83140E+05 7.99644E+05 1.27665E+06
 -1       165-2.49827E-07 5.02710E-07-2.47470E-05-1.48566E+05 3.38710E-07 1.87145E+06
 -1       166 1.86594E+05 5.78322E+04-1.22806E+07 2.01222E+05-1.02598E+05 1.25803E+06
 -1       167-4.13244E-07-1.85066E-07-2.30547E-05 1.83411E+05 1.11315E-07 2.50523E+06
 -1       168-1.86594E+05-5.78322E+04 1.22806E+07 2.01222E+05 1.02598E+05 1.25803E+06
 -1       169-1.75904E-07-4.07977E-07-2.07683E-05 3.37542E+04 2.94920E-07 2.16710E+06
 -1       170 9.47636E+04 5.33238E+04-9.32646E+06-3.47789E+04-1.03042E+05 1.23449E+06
 -1       171 5.71017E-07-3.46190E-07-1.92434E-05-3.13144E+04 2.68182E-07 2.19310E+06
 -1       172-9.47636E+04-5.33238E+04 9.32646E+06-3.47789E+04 1.03042E+05 1.23449E+06
 -1       173 2.66184E-07 5.87297E-07-1.61928E-05-1.35332E+04-6.30480E-08 2.00679E+06
 -1       174 3.53023E+04 6.85982E+03-6.40873E+06 7.82528E+03-6.80315E+04 1.11897E+06
 -1       175-1.41526E-06 6.18841E-07-1.40992E-05 3.41063E+03 4.06862E-08 1.98545E+06
 -1       176-3.53023E+04-6.85982E+03 6.40873E+06 7.82528E+03 6.80315E+04 1.11897E+06
 -1       177-2.31086E-06 1.93446E-07-1.31870E-05-4.78798E+03-4.46398E-07 1.78944E+06
 -1       178 2.29161E+04 3.69554E+03-3.86710E+06-6.88561E+03-6.12474E+04 9.45771E+05
 -1       179-2.82309E-06 3.50856E-08-1.14014E-05-9.93356E+03-9.83384E-07 1.65029E+06
 -1       180-2.29161E+04-3.69554E+03 3.86710E+06-6.88561E+03 6.12474E+04 9.45771E+05
 -1       181-4.58833E-06-1.16480E-06-9.83724E-06-9.78519E+03 4.20388E-07 1.42702E+06
 -1       182 1.81624E+04-6.69347E+02-1.82289E+06-5.28701E+03-4.33585E+04 7.03706E+05
 -1       183-5.62673E-06-2.06751E-06-8.09600E-06-9.94864E+03 5.03094E-07 1.22752E+06
 -1       184-1.81624E+04 6.69347E+02 1.82289E+06-5.28701E+03 4.33585E+04 7.03706E+05
 -1       185-2.69760E-06-8.04978E-07-4.42834E-06-1.22406E+04-4.23479E-08 9.46672E+05
 -1       186 1.85184E+04-1.41443E+03-4.60584E+05-6.93617E+03-2.44112E+04 3.90416E+05
 -1       187-1.31715E-07 1.49061E-06-7.69251E-07-1.17235E+04 2.08131E-07 6.76546E+05
 -1       188-1.85184E+04 1.41443E+03 4.60584E+05-6.93617E+03 2.44112E+04 3.90416E+05
 -1       189 4.39563E-06 2.67718E-06 7.66991E-07-1.45835E+04-2.89298E-07 3.51243E+05
 -1       190 3.60632E+06 4.93639E+06 3.55187E+07-5.62781E-07 3.53334E-06 1.79330E+06
 -1       191-2.72914E+06-1.60918E+06 3.09605E+07-5.36965E+04 5.97862E+05-1.88430E+05
 -1       192-2.57688E+06-4.31460E+05 3.16970E+07 1.48633E-07 6.29848E-06-6.41518E+05
 -1       193-2.72914E+06-1.60918E+06 3.09605E+07 5.36965E+04-5.97862E+05-1.88430E+05
 -1       194-7.20492E+05 2.92761E+05 2.79092E+07 1.70839E-07 5.36813E-06 2.06504E+05
 -1       195 4.02551E+05 8.24277E+04 2.50293E+07 4.53419E+04 2.91452E+05 2.53351E+04
 -1       196 4.38759E+05-3.40800E+04 2.51463E+07-1.59667E-07 5.21254E-06 3.98379E+04
 -1       197 4.02551E+05 8.24277E+04 2.50293E+07-4.53419E+04-2.91452E+05 2.53351E+04
 -1       198 2.65060E+05 5.76090E+04 2.17517E+07-2.65500E-08 4.71187E-06 2.48056E+05
 -1       199-2.27286E+05-8.62671E+04 1.86070E+07-5.18254E+03 1.89926E+05 1.96499E+05
 -1       200-2.19489E+05-4.22583E+04 1.86050E+07-7.96317E-08 4.62430E-06 1.17108E+05
 -1       201-2.27286E+05-8.62671E+04 1.86070E+07 5.18254E+03-1.89926E+05 1.96499E+05
 -1       202-4.78101E+04-2.39983E+04 1.56937E+07-3.14162E-07 4.50990E-06 1.87530E+05
 -1       203 1.22712E+04-1.00282E+04 1.28233E+07 2.60164E+03 1.75475E+05 1.93640E+05
 -1       204 1.71408E+04-3.23908E+04 1.28151E+07-4.44585E-07 4.92728E-06 1.34795E+05
 -1       205 1.22712E+04-1.00282E+04 1.28233E+07-2.60164E+03-1.75475E+05 1.93640E+05
 -1       206 1.19343E+04-3.38019E+04 1.02314E+07-7.64392E-07 6.05694E-06 1.54507E+05
 -1       207-3.04631E+04-2.96434E+04 7.68734E+06-1.75679E+03 1.43917E+05 1.85781E+05
 -1       208-2.92502E+04-4.70545E+04 7.66889E+06-7.27384E-07 7.44007E-06 1.30306E+05
 -1       209-3.04631E+04-2.96434E+04 7.68734E+06 1.75679E+03-1.43917E+05 1.85781E+05
 -1       210-1.40636E+04-5.15718E+04 5.61411E+06-2.81830E-07 8.05465E-06 1.22465E+05
 -1       211-1.46702E+04-3.18996E+04 3.58640E+06-1.39617E+03 1.07476E+05 1.38796E+05
 -1       212-1.42958E+04-5.96607E+04 3.56230E+06-1.20133E-07 7.09894E-06 9.76970E+04
 -1       213-1.46702E+04-3.18996E+04 3.58640E+06 1.39617E+03-1.07476E+05 1.38796E+05
 -1       214-1.37500E+04-6.63100E+04 2.18494E+06-3.11516E-07 3.96170E-06 8.10801E+04
 -1       215-1.81848E+04-4.24699E+04 8.41263E+05-2.30670E+03 5.87970E+04 8.10364E+04
 -1       216-1.83664E+04-7.88175E+04 8.07162E+05-1.22212E-06 1.91939E-06 5.77862E+04
 -1       217-1.81848E+04-4.24699E+04 8.41263E+05 2.30670E+03-5.87970E+04 8.10364E+04
 -1       218-2.03859E+04-8.20494E+04 3.06387E+05-6.01696E-07 1.40985E-06 2.62300E+04
 -1       219-4.62169E-08 5.12227E-09 6.68224E-08-2.14764E-07 1.30746E-06 2.27574E+06
 -1       220-3.83938E-07-3.35218E-07 1.41287E-05-2.48124E+05 8.48588E-07 2.34196E+06
 -1       221-3.48264E+05 1.45050E+05 1.62099E+07-1.33121E-07 4.17562E-06 8.76877E+05
 -1       222-9.09786E-08-4.51109E-08 2.91038E-09-1.73866E-07 2.22452E-06 2.39527E+06
 -1       223 3.48264E+05-1.45050E+05-1.62099E+07-1.85682E-08 5.59005E-07 8.76877E+05
 -1       224 5.31552E-07 3.84520E-07-1.40062E-05 2.48124E+05 8.25239E-07 2.34196E+06
 -1       225 1.23313E-07 1.23167E-07 2.07801E-07-9.53150E-09 1.65949E-06 1.64211E+06
 -1       226-8.38663E-08-2.08731E-07 1.15528E-05-9.72146E+03 1.01725E-06 2.09044E+06
 -1       227-2.13792E+05-1.87739E+05 1.24164E+07 4.73483E-08 3.51891E-06 8.57747E+05
 -1       228 2.40922E-07 2.09346E-07 6.99074E-08 7.62011E-08 1.92186E-06 1.67566E+06
 -1       229 2.13792E+05 1.87739E+05-1.24164E+07-5.68434E-08 5.46126E-07 8.57747E+05
 -1       230-7.38328E-08 3.09598E-07-1.14215E-05 9.72146E+03 1.02823E-06 2.09044E+06
 -1       231-1.38636E-06-2.93476E-07-3.87721E-07 2.24987E-07 1.74917E-06 1.35771E+06
 -1       232-1.27967E-06-9.34546E-07 8.84439E-06-1.74650E+03 1.01283E-06 1.81880E+06
 -1       233-6.16391E+04-1.37483E+03 9.32564E+06 1.55330E-07 3.12194E-06 7.80800E+05
 -1       234-3.01105E-06-7.68086E-07-6.42496E-07 3.81082E-07 1.68783E-06 1.44449E+06
 -1       235 6.16391E+04 1.37483E+03-9.32564E+06 5.55210E-08 6.56104E-07 7.80800E+05
 -1       236-1.37143E-06-4.57978E-07-9.98378E-06 1.74650E+03 8.00987E-07 1.81880E+06
 -1       237-1.32256E-06-1.06132E-06-7.95379E-07-8.08495E-09 1.68018E-06 1.30675E+06
 -1       238-8.20988E-07 2.37107E-07 6.72312E-06 6.22765E+03 8.59222E-07 1.63667E+06
 -1       239-3.19397E+04-3.05537E+04 6.39752E+06-2.73829E-07 3.13450E-06 7.11340E+05
 -1       240 8.61619E-07-1.19683E-06-7.64237E-07-1.56679E-07 1.42534E-06 1.28789E+06
 -1       241 3.19397E+04 3.05537E+04-6.39752E+06 4.02504E-07 5.56138E-08 7.11340E+05
 -1       242 5.65205E-08-6.53806E-07-7.46749E-06-6.22765E+03 7.80795E-07 1.63667E+06
 -1       243 3.87337E-07-8.53432E-07-1.39989E-07-1.05369E-07 1.21278E-06 1.15388E+06
 -1       244 1.51704E-06 9.82075E-07 6.16152E-06 7.85270E+03 1.09177E-06 1.35936E+06
 -1       245-1.88858E+04-2.18745E+04 3.84326E+06-7.76784E-07 4.56778E-06 5.99366E+05
 -1       246-3.59625E-07-8.45405E-07-2.41300E-07-4.62029E-07 1.91308E-06 1.06843E+06
 -1       247 1.88858E+04 2.18745E+04-3.84326E+06-2.91067E-08-5.74608E-07 5.99366E+05
 -1       248-1.74889E-06-8.13829E-07-5.99350E-06-7.85270E+03 9.99305E-07 1.35936E+06
 -1       249-1.01134E-06-3.45135E-07-8.10163E-07 4.46298E-07 1.97869E-06 9.23444E+05
 -1       250-4.73829E-06-8.40237E-07 1.28026E-06 1.07194E+04 8.67623E-07 1.01087E+06
 -1       251-1.74311E+04-2.93948E+04 1.79075E+06 2.44190E-07 4.19057E-06 4.45962E+05
 -1       252-2.00838E-06 2.83160E-07 1.72477E-08 1.37304E-06 1.52821E-06 7.94226E+05
 -1       253 1.74311E+04 2.93948E+04-1.79075E+06 1.31765E-06-4.34027E-07 4.45962E+05
 -1       254-3.51705E-06-1.46390E-06-4.14656E-06-1.07194E+04 7.88827E-07 1.01087E+06
 -1       255-1.56803E-06-4.96984E-07-8.18778E-07 6.56473E-07 1.77692E-06 6.13548E+05
 -1       256 1.98477E-06-2.56146E-08 1.20268E-06 1.18813E+04 9.73715E-07 5.57472E+05
 -1       257-1.83478E+04-3.77101E+04 4.16875E+05-9.29769E-07 1.70605E-06 2.48092E+05
 -1       258-2.26120E-06-9.15139E-07-6.71794E-07-1.94863E-07 1.43863E-06 4.38397E+05
 -1       259 1.83478E+04 3.77101E+04-4.16875E+05-3.89921E-07 7.26419E-07 2.48092E+05
 -1       260-1.50110E-06-3.66349E-07-1.13710E-06-1.18813E+04 1.18347E-06 5.57472E+05
 -1       261 3.01927E-07-9.13507E-07 6.67192E-07 1.48687E-06 1.18270E-06 2.21321E+05
 -3
    1PSTEP                         3           1           1          
    1PGM                1.000000E+00                                  
    1PGK                1.473508E+04                                  
    1PHID                         -1                                  
    1PSUBC                         0                                  
    1PMODE                         2                                  
  100CL  102 1.93195E+01         261                     2    2MODAL      1
 -4  DISP        4    1
 -5  D1          1    2    1    0
 -5  D2          1    2    2    0
 -5  D3          1    2    3    0
 -5  ALL         1    2    0    0    1ALL
 -1         1 0.00000E+00 0.00000E+00 0.00000E+00
 -1         2 0.00000E+00 0.00000E+00 0.00000E+00
 -1         3 0.00000E+00 0.00000E+00 0.00000E+00
 -1         4 0.00000E+00 0.00000E+00 0.00000E+00
 -1         5 1.25128E-07-6.45189E-03-8.12725E-04
 -1         6-1.25128E-07-6.45189E-03-8.12725E-04
 -1         7 1.25128E-07-6.45189E-03 8.12725E-04
 -1         8-1.25128E-07-6.45189E-03 8.12725E-04
 -1         9 0.00000E+00 0.00000E+00 0.00000E+00
 -1        10 0.00000E+00 0.00000E+00 0.00000E+00
 -1        11 0.00000E+00 0.00000E+00 0.00000E+00
 -1        12 0.00000E+00 0.00000E+00 0.00000E+00
 -1        13 0.00000E+00 0.00000E+00 0.00000E+00
 -1        14 0.00000E+00 0.00000E+00 0.00000E+00
 -1        15 0.00000E+00 0.00000E+00 0.00000E+00
 -1        16 0.00000E+00 0.00000E+00 0.00000E+00
 -1        17 0.00000E+00 0.00000E+00 0.00000E+00
 -1        18 0.00000E+00 0.00000E+00 0.00000E+00
 -1        19 0.00000E+00 0.00000E+00 0.00000E+00
 -1        20 0.00000E+00 0.00000E+00 0.00000E+00
 -1        21 6.05917E-08-6.45187E-03-8.12824E-04
 -1        22 3.69079E-15-6.45189E-03-8.12876E-04
 -1        23-6.05917E-08-6.45187E-03-8.12824E-04
 -1        24-6.42914E-08-6.45171E-03-4.06200E-04
 -1        25 3.83374E-15-6.45143E-03-2.59450E-16
 -1        26 6.42915E-08-6.45171E-03 4.06200E-04
 -1        27 6.05917E-08-6.45187E-03 8.12824E-04
 -1        28 3.99442E-15-6.45189E-03 8.12876E-04
 -1        29-6.05917E-08-6.45187E-03 8.12824E-04
 -1        30-6.42914E-08-6.45171E-03 4.06200E-04
 -1        31 3.83927E-15-6.45143E-03 2.76363E-16
 -1        32 6.42915E-08-6.45171E-03-4.06200E-04
 -1        33 4.02331E-05-6.41357E-05-1.17126E-04
 -1        34 2.65504E-05-1.89142E-04-2.31277E-04
 -1        35 2.93456E-05-3.97584E-04-3.34848E-04
 -1        36 2.51216E-05-6.62607E-04-4.26548E-04
 -1        37 2.27352E-05-9.89904E-04-5.06873E-04
 -1        38 1.92140E-05-1.36452E-03-5.76800E-04
 -1        39 1.63327E-05-1.78275E-03-6.36331E-04
 -1        40 1.33536E-05-2.23607E-03-6.85854E-04
 -1        41 1.06274E-05-2.71872E-03-7.25696E-04
 -1        42 8.06728E-06-3.22387E-03-7.56777E-04
 -1        43 5.80494E-06-3.74592E-03-7.79781E-04
 -1        44 3.83057E-06-4.27961E-03-7.95753E-04
 -1        45 2.20984E-06-4.82036E-03-8.05636E-04
 -1        46 9.81459E-07-5.36442E-03-8.10829E-04
 -1        47 2.48945E-07-5.90879E-03-8.12677E-04
 -1        48-2.48945E-07-5.90879E-03-8.12677E-04
 -1        49-9.81459E-07-5.36442E-03-8.10829E-04
 -1        50-2.20984E-06-4.82036E-03-8.05636E-04
 -1        51-3.83057E-06-4.27961E-03-7.95753E-04
 -1        52-5.80494E-06-3.74592E-03-7.79781E-04
 -1        53-8.06728E-06-3.22387E-03-7.56777E-04
 -1        54-1.06274E-05-2.71872E-03-7.25696E-04
 -1        55-1.33536E-05-2.23607E-03-6.85854E-04
 -1        56-1.63327E-05-1.78275E-03-6.36331E-04
 -1        57-1.92140E-05-1.36452E-03-5.76800E-04
 -1        58-2.27352E-05-9.89904E-04-5.06873E-04
 -1        59-2.51216E-05-6.62607E-04-4.26548E-04
 -1        60-2.93456E-05-3.97584E-04-3.34848E-04
 -1        61-2.65504E-05-1.89142E-04-2.31277E-04
 -1        62-4.02331E-05-6.41357E-05-1.17126E-04
 -1        63-4.02331E-05-6.41357E-05 1.17126E-04
 -1        64-2.65504E-05-1.89142E-04 2.31277E-04
 -1        65-2.93456E-05-3.97584E-04 3.34848E-04
 -1        66-2.51216E-05-6.62607E-04 4.26548E-04
 -1        67-2.27352E-05-9.89904E-04 5.06873E-04
 -1        68-1.92140E-05-1.36452E-03 5.76800E-04
 -1        69-1.63327E-05-1.78275E-03 6.36331E-04
 -1        70-1.33536E-05-2.23607E-03 6.85854E-04
 -1        71-1.06274E-05-2.71872E-03 7.25696E-04
 -1        72-8.06728E-06-3.22387E-03 7.56777E-04
 -1        73-5.80494E-06-3.74592E-03 7.79781E-04
 -1        74-3.83057E-06-4.27961E-03 7.95753E-04
 -1        75-2.20984E-06-4.82036E-03 8.05636E-04
 -1        76-9.81459E-07-5.36442E-03 8.10829E-04
 -1        77-2.48945E-07-5.90879E-03 8.12677E-04
 -1        78 4.02331E-05-6.41357E-05 1.17126E-04
 -1        79 2.65504E-05-1.89142E-04 2.31277E-04
 -1        80 2.93456E-05-3.97584E-04 3.34848E-04
 -1        81 2.51216E-05-6.62607E-04 4.26548E-04
 -1        82 2.27352E-05-9.89904E-04 5.06873E-04
 -1        83 1.92140E-05-1.36452E-03 5.76800E-04
 -1        84 1.63327E-05-1.78275E-03 6.36331E-04
 -1        85 1.33536E-05-2.23607E-03 6.85854E-04
 -1        86 1.06274E-05-2.71872E-03 7.25696E-04
 -1        87 8.06728E-06-3.22387E-03 7.56777E-04
 -1        88 5.80494E-06-3.74592E-03 7.79781E-04
 -1        89 3.83057E-06-4.27961E-03 7.95753E-04
 -1        90 2.20984E-06-4.82036E-03 8.05636E-04
 -1        91 9.81459E-07-5.36442E-03 8.10829E-04
 -1        92 2.48945E-07-5.90879E-03 8.12677E-04
 -1        93 0.00000E+00 0.00000E+00 0.00000E+00
 -1        94 0.00000E+00 0.00000E+00 0.00000E+00
 -1        95 0.00000E+00 0.00000E+00 0.00000E+00
 -1        96 0.00000E+00 0.00000E+00 0.00000E+00
 -1        97 0.00000E+00 0.00000E+00 0.00000E+00
 -1        98 3.76592E-15-6.45173E-03-4.06292E-04
 -1        99 3.83927E-15-6.45143E-03 1.42464E-16
 -1       100 3.83602E-15-6.45147E-03 5.31259E-18
 -1       101 3.83547E-15-6.45143E-03-1.28261E-16
 -1       102 3.91549E-15-6.45173E-03 4.06292E-04
 -1       103 1.06794E-17-7.56888E-05-1.13019E-04
 -1       104-1.32533E-05-1.98216E-04-2.33616E-04
 -1       105 9.17235E-17-2.00269E-04-2.35572E-04
 -1       106 1.32533E-05-1.98216E-04-2.33616E-04
 -1       107 2.21719E-16-4.06725E-04-3.35415E-04
 -1       108-1.25240E-05-6.69151E-04-4.27686E-04
 -1       109 4.02022E-16-6.71874E-04-4.28061E-04
 -1       110 1.25240E-05-6.69151E-04-4.27686E-04
 -1       111 6.16044E-16-9.97221E-04-5.07819E-04
 -1       112-9.61050E-06-1.36956E-03-5.77723E-04
 -1       113 8.62808E-16-1.37126E-03-5.77845E-04
 -1       114 9.61050E-06-1.36956E-03-5.77723E-04
 -1       115 1.13061E-15-1.78811E-03-6.37262E-04
 -1       116-6.67317E-06-2.23943E-03-6.86656E-04
 -1       117 1.41705E-15-2.24062E-03-6.86751E-04
 -1       118 6.67317E-06-2.23943E-03-6.86656E-04
 -1       119 1.71824E-15-2.72223E-03-7.26523E-04
 -1       120-4.03296E-06-3.22589E-03-7.57454E-04
 -1       121 2.02529E-15-3.22658E-03-7.57524E-04
 -1       122 4.03296E-06-3.22589E-03-7.57454E-04
 -1       123 2.32063E-15-3.74783E-03-7.80443E-04
 -1       124-1.91329E-06-4.28055E-03-7.96259E-04
 -1       125 2.61466E-15-4.28088E-03-7.96309E-04
 -1       126 1.91329E-06-4.28055E-03-7.96259E-04
 -1       127 2.88354E-15-4.82107E-03-8.06082E-04
 -1       128-4.88763E-07-5.36464E-03-8.11107E-04
 -1       129 3.15329E-15-5.36474E-03-8.11139E-04
 -1       130 4.88763E-07-5.36464E-03-8.11107E-04
 -1       131 3.42087E-15-5.90885E-03-8.12860E-04
 -1       132 4.70815E-17-3.30486E-05-5.62430E-17
 -1       133 1.33211E-05-1.73138E-04-1.11578E-04
 -1       134 1.35769E-16-1.73316E-04-1.13489E-16
 -1       135-1.33211E-05-1.73138E-04 1.11578E-04
 -1       136 2.82380E-16-3.73399E-04-1.59161E-16
 -1       137 1.25774E-05-6.49957E-04-2.09416E-04
 -1       138 4.68755E-16-6.45919E-04-1.99439E-16
 -1       139-1.25774E-05-6.49957E-04 2.09416E-04
 -1       140 6.95299E-16-9.72355E-04-2.32832E-16
 -1       141 9.61775E-06-1.35377E-03-2.84931E-04
 -1       142 9.52526E-16-1.35056E-03-2.58853E-16
 -1       143-9.61775E-06-1.35377E-03 2.84931E-04
 -1       144 1.23079E-15-1.77026E-03-2.77773E-16
 -1       145 6.68664E-06-2.22863E-03-3.39704E-04
 -1       146 1.52699E-15-2.22611E-03-2.90133E-16
 -1       147-6.68664E-06-2.22863E-03 3.39704E-04
 -1       148 1.83203E-15-2.71054E-03-2.96475E-16
 -1       149 4.05229E-06-3.21926E-03-3.75707E-04
 -1       150 2.14537E-15-3.21765E-03-2.93494E-16
 -1       151-4.05229E-06-3.21926E-03 3.75707E-04
 -1       152 2.44423E-15-3.74132E-03-2.87585E-16
 -1       153 1.93823E-06-4.27735E-03-3.95867E-04
 -1       154 2.73852E-15-4.27647E-03-2.77285E-16
 -1       155-1.93823E-06-4.27735E-03 3.95867E-04
 -1       156 3.01953E-15-4.81838E-03-2.71620E-16
 -1       157 5.23746E-07-5.36371E-03-4.04343E-04
 -1       158 3.29267E-15-5.36331E-03-2.68069E-16
 -1       159-5.23746E-07-5.36371E-03 4.04343E-04
 -1       160 3.57136E-15-5.90835E-03-2.63705E-16
 -1       161 3.24990E-17-7.56888E-05 1.13019E-04
 -1       162-1.32533E-05-1.98216E-04 2.33616E-04
 -1       163 1.40567E-16-2.00269E-04 2.35572E-04
 -1       164 1.32533E-05-1.98216E-04 2.33616E-04
 -1       165 2.97613E-16-4.06725E-04 3.35415E-04
 -1       166-1.25240E-05-6.69151E-04 4.27686E-04
 -1       167 5.04479E-16-6.71874E-04 4.28061E-04
 -1       168 1.25240E-05-6.69151E-04 4.27686E-04
 -1       169 7.47341E-16-9.97221E-04 5.07819E-04
 -1       170-9.61050E-06-1.36956E-03 5.77723E-04
 -1       171 1.02121E-15-1.37126E-03 5.77845E-04
 -1       172 9.61050E-06-1.36956E-03 5.77723E-04
 -1       173 1.31655E-15-1.78811E-03 6.37262E-04
 -1       174-6.67317E-06-2.23943E-03 6.86656E-04
 -1       175 1.62652E-15-2.24062E-03 6.86751E-04
 -1       176 6.67317E-06-2.23943E-03 6.86656E-04
 -1       177 1.94528E-15-2.72223E-03 7.26523E-04
 -1       178-4.03296E-06-3.22589E-03 7.57454E-04
 -1       179 2.26577E-15-3.22658E-03 7.57524E-04
 -1       180 4.03296E-06-3.22589E-03 7.57454E-04
 -1       181 2.57433E-15-3.74783E-03 7.80443E-04
 -1       182-1.91329E-06-4.28055E-03 7.96259E-04
 -1       183 2.87183E-15-4.28088E-03 7.96309E-04
 -1       184 1.91329E-06-4.28055E-03 7.96259E-04
 -1       185 3.16609E-15-4.82107E-03 8.06082E-04
 -1       186-4.88763E-07-5.36464E-03 8.11107E-04
 -1       187 3.44755E-15-5.36474E-03 8.11139E-04
 -1       188 4.88763E-07-5.36464E-03 8.11107E-04
 -1       189 3.72315E-15-5.90885E-03 8.12860E-04
 -1       190 4.76812E-17-3.30486E-05 5.76694E-17
 -1       191 1.33211E-05-1.73138E-04 1.11578E-04
 -1       192 1.36257E-16-1.73316E-04 1.17175E-16
 -1       193-1.33211E-05-1.73138E-04-1.11578E-04
 -1       194 2.83275E-16-3.73399E-04 1.65205E-16
 -1       195 1.25774E-05-6.49957E-04 2.09416E-04
 -1       196 4.70218E-16-6.45919E-04 2.07056E-16
 -1       197-1.25774E-05-6.49957E-04-2.09416E-04
 -1       198 6.96329E-16-9.72355E-04 2.41289E-16
 -1       199 9.61775E-06-1.35377E-03 2.84931E-04
 -1       200 9.52309E-16-1.35056E-03 2.69641E-16
 -1       201-9.61775E-06-1.35377E-03-2.84931E-04
 -1       202 1.23095E-15-1.77026E-03 2.90187E-16
 -1       203 6.68664E-06-2.22863E-03 3.39704E-04
 -1       204 1.52965E-15-2.22611E-03 3.05853E-16
 -1       205-6.68664E-06-2.22863E-03-3.39704E-04
 -1       206 1.83360E-15-2.71054E-03 3.11979E-16
 -1       207 4.05229E-06-3.21926E-03 3.75707E-04
 -1       208 2.14141E-15-3.21765E-03 3.11491E-16
 -1       209-4.05229E-06-3.21926E-03-3.75707E-04
 -1       210 2.44347E-15-3.74132E-03 3.06179E-16
 -1       211 1.93823E-06-4.27735E-03 3.95867E-04
 -1       212 2.73853E-15-4.27647E-03 2.96746E-16
 -1       213-1.93823E-06-4.27735E-03-3.95867E-04
 -1       214 3.02351E-15-4.81838E-03 2.87422E-16
 -1       215 5.23746E-07-5.36371E-03 4.04343E-04
 -1       216 3.30243E-15-5.36331E-03 2.80917E-16
 -1       217-5.23746E-07-5.36371E-03-4.04343E-04
 -1       218 3.56930E-15-5.90835E-03 2.78748E-16
 -1       219 3.47961E-17-4.43089E-05 8.40257E-19
 -1       220 1.17202E-16-1.83281E-04-1.13732E-04
 -1       221 1.30945E-16-1.81673E-04 5.81946E-17
 -1       222 1.31392E-16-1.82947E-04 2.00577E-18
 -1       223 1.30782E-16-1.81673E-04-5.43185E-17
 -1       224 1.41488E-16-1.83281E-04 1.13732E-04
 -1       225 2.74710E-16-3.83287E-04 2.79182E-18
 -1       226 4.36283E-16-6.58697E-04-2.10495E-04
 -1       227 4.66586E-16-6.51894E-04 1.04517E-16
 -1       228 4.65014E-16-6.54026E-04 3.46945E-18
 -1       229 4.65556E-16-6.51894E-04-9.72529E-17
 -1       230 4.87742E-16-6.58697E-04 2.10495E-04
 -1       231 6.91504E-16-9.80015E-04 4.77049E-18
 -1       232 9.07044E-16-1.36027E-03-2.85769E-04
 -1       233 9.48840E-16-1.35539E-03 1.37423E-16
 -1       234 9.47647E-16-1.35686E-03 5.90890E-18
 -1       235 9.49436E-16-1.35539E-03-1.25605E-16
 -1       236 9.86556E-16-1.36027E-03 2.85769E-04
 -1       237 1.22873E-15-1.77577E-03 6.45100E-18
 -1       238 1.47300E-15-2.23311E-03-3.40430E-04
 -1       239 1.52634E-15-2.22940E-03 1.54336E-16
 -1       240 1.52461E-15-2.23051E-03 5.69206E-18
 -1       241 1.52444E-15-2.22940E-03-1.41597E-16
 -1       242 1.57757E-15-2.23311E-03 3.40430E-04
 -1       243 1.83474E-15-2.71412E-03 7.58942E-18
 -1       244 2.08145E-15-3.22197E-03-3.76318E-04
 -1       245 2.14390E-15-3.21968E-03 1.59595E-16
 -1       246 2.14553E-15-3.22035E-03 8.40257E-18
 -1       247 2.14623E-15-3.21968E-03-1.41814E-16
 -1       248 2.20337E-15-3.22197E-03 3.76318E-04
 -1       249 2.44645E-15-3.74330E-03 1.11131E-17
 -1       250 2.67603E-15-4.27865E-03-3.96323E-04
 -1       251 2.73932E-15-4.27744E-03 1.53848E-16
 -1       252 2.73612E-15-4.27778E-03 1.04626E-17
 -1       253 2.73806E-15-4.27744E-03-1.34116E-16
 -1       254 2.80353E-15-4.27865E-03 3.96323E-04
 -1       255 3.02204E-15-4.81916E-03 8.34836E-18
 -1       256 3.22393E-15-5.36408E-03-4.04594E-04
 -1       257 3.30026E-15-5.36359E-03 1.44849E-16
 -1       258 3.29467E-15-5.36370E-03 8.94467E-18
 -1       259 3.29348E-15-5.36359E-03-1.29400E-16
 -1       260 3.37284E-15-5.36408E-03 4.04594E-04
 -1       261 3.56876E-15-5.90846E-03 6.12574E-18
 -3
    1PSTEP                         4           1           1          
    1PGM                1.000000E+00                                  
    1PGK                1.473508E+04                                  
    1PHID                         -1                                  
    1PSUBC                         0                                  
    1PMODE                         2                                  
  100CL  102 1.93195E+01         261                     2    2MODAL      1
 -4  STRESS      6    1
 -5  SXX         1    4    1    1
 -5  SYY         1    4    2    2
 -5  SZZ         1    4    3    3
 -5  SXY         1    4    1    2
 -5  SYZ         1    4    2    3
 -5  SZX         1    4    3    1
 -1         1-1.57716E+07-1.82503E+07-5.94815E+07 1.29037E+06-5.09034E+06-1.01815E+07
 -1         2-1.57716E+07-1.82503E+07-5.94815E+07-1.29037E+06-5.09034E+06 1.01815E+07
 -1         3 1.57716E+07 1.82503E+07 5.94815E+07-1.29037E+06-5.09034E+06-1.01815E+07
 -1         4 1.57716E+07 1.82503E+07 5.94815E+07 1.29037E+06-5.09034E+06 1.01815E+07
 -1         5 6.91253E+02 8.66675E+04 2.70749E+05-3.15104E+03 2.55153E+04-2.92087E+03
 -1         6 6.91253E+02 8.66675E+04 2.70749E+05 3.15104E+03 2.55153E+04 2.92087E+03
 -1         7-6.91253E+02-8.66675E+04-2.70749E+05 3.15104E+03 2.55153E+04-2.92087E+03
 -1         8-6.91253E+02-8.66675E+04-2.70749E+05-3.15104E+03 2.55153E+04 2.92087E+03
 -1         9-1.45410E+07-1.70524E+07-5.65774E+07 3.22656E+05-6.72543E+06-4.75336E+06
 -1        10-1.33104E+07-1.58544E+07-5.36734E+07-9.20729E-07-8.36052E+06-3.80259E-06
 -1        11-1.45410E+07-1.70524E+07-5.65774E+07-3.22656E+05-6.72543E+06 4.75336E+06
 -1        12-6.47399E+06-6.04960E+06-2.81099E+07-1.26588E+06-7.08602E+05 5.09198E+06
 -1        13-8.17189E-06-8.57143E-06-2.81334E-05-1.24139E+06 3.67314E+06 4.40117E-06
 -1        14 6.47399E+06 6.04960E+06 2.81099E+07-1.26588E+06-7.08602E+05-5.09198E+06
 -1        15 1.45410E+07 1.70524E+07 5.65774E+07-3.22656E+05-6.72543E+06-4.75336E+06
 -1        16 1.33104E+07 1.58544E+07 5.36734E+07 9.70322E-07-8.36052E+06-8.95234E-07
 -1        17 1.45410E+07 1.70524E+07 5.65774E+07 3.22656E+05-6.72543E+06 4.75336E+06
 -1        18 6.47399E+06 6.04960E+06 2.81099E+07 1.26588E+06-7.08602E+05 5.09198E+06
 -1        19 8.31555E-06 8.75024E-06 2.87257E-05 1.24139E+06 3.67314E+06 4.58687E-06
 -1        20-6.47399E+06-6.04960E+06-2.81099E+07 1.26588E+06-7.08602E+05-5.09198E+06
 -1        21 4.29723E+03 8.45449E+04 2.73846E+05-2.99846E+03 2.55583E+04-4.57044E+03
 -1        22 7.90322E+03 8.24223E+04 2.76944E+05-5.18007E-07 2.56013E+04 1.37346E-06
 -1        23 4.29723E+03 8.45449E+04 2.73846E+05 2.99846E+03 2.55583E+04 4.57044E+03
 -1        24-1.22018E+03 8.92319E+04 8.50682E+04 5.64676E+03-1.46604E+04 1.43000E+03
 -1        25 8.14319E-07 4.19229E-06 2.48147E-06 8.14248E+03-5.48360E+04-1.03788E-06
 -1        26 1.22018E+03-8.92319E+04-8.50682E+04 5.64676E+03-1.46604E+04-1.43000E+03
 -1        27-4.29723E+03-8.45449E+04-2.73846E+05 2.99846E+03 2.55583E+04-4.57044E+03
 -1        28-7.90322E+03-8.24223E+04-2.76944E+05 1.90042E-06 2.56013E+04-8.85422E-07
 -1        29-4.29723E+03-8.45449E+04-2.73846E+05-2.99846E+03 2.55583E+04 4.57044E+03
 -1        30 1.22018E+03-8.92319E+04-8.50682E+04-5.64676E+03-1.46604E+04 1.43000E+03
 -1        31 3.68675E-06-2.30620E-06-1.06418E-06-8.14248E+03-5.48360E+04 1.43091E-06
 -1        32-1.22018E+03 8.92319E+04 8.50682E+04-5.64676E+03-1.46604E+04-1.43000E+03
 -1        33-3.62108E+06-5.22029E+06-5.06778E+07-6.89022E+05-1.58848E+06 1.88140E+06
 -1        34 3.49977E+06 4.21067E+06-4.40980E+07 3.74701E+05-1.04868E+05-2.41789E+06
 -1        35-1.98450E+05 6.30988E+05-4.09312E+07 2.56526E+05-7.85227E+05 3.02588E+05
 -1        36 3.00210E+05-2.74732E+05-3.60181E+07-1.98461E+05-2.56868E+05-3.89965E+05
 -1        37-1.23247E+05-3.33992E+05-3.17465E+07-4.22011E+04-7.02758E+05-1.75722E+04
 -1        38 1.29094E+05 3.09176E+05-2.70557E+07 2.85319E+04-5.53239E+05-1.16840E+05
 -1        39 1.43351E+03 6.21384E+04-2.29097E+07 2.03432E+04-6.17247E+05-4.54668E+04
 -1        40 6.44529E+03-3.79648E+03-1.86829E+07-1.45300E+04-5.28181E+05-6.95739E+04
 -1        41-2.29432E+03 1.01865E+04-1.49600E+07-8.91145E+02-5.22297E+05-5.26366E+04
 -1        42 9.83351E+03 5.62169E+04-1.12327E+07 3.99038E+03-4.71770E+05-5.05566E+04
 -1        43 3.10701E+03 4.36659E+04-8.25413E+06 3.97278E+03-4.16438E+05-4.14316E+04
 -1        44 4.61497E+03 4.66912E+04-5.26780E+06 1.14629E+03-3.49157E+05-3.66603E+04
 -1        45 4.78078E+03 5.73563E+04-3.26386E+06 3.86144E+03-2.82339E+05-3.02407E+04
 -1        46 5.47592E+03 5.08573E+04-1.27325E+06 3.48820E+03-2.01132E+05-1.97953E+04
 -1        47 5.74468E+03 6.31970E+04-4.90781E+05 2.66976E+03-8.28402E+04-5.72081E+03
 -1        48 5.74468E+03 6.31970E+04-4.90781E+05-2.66976E+03-8.28402E+04 5.72081E+03
 -1        49 5.47592E+03 5.08573E+04-1.27325E+06-3.48820E+03-2.01132E+05 1.97953E+04
 -1        50 4.78078E+03 5.73563E+04-3.26386E+06-3.86144E+03-2.82339E+05 3.02407E+04
 -1        51 4.61497E+03 4.66912E+04-5.26780E+06-1.14629E+03-3.49157E+05 3.66603E+04
 -1        52 3.10701E+03 4.36659E+04-8.25413E+06-3.97278E+03-4.16438E+05 4.14316E+04
 -1        53 9.83351E+03 5.62169E+04-1.12327E+07-3.99038E+03-4.71770E+05 5.05566E+04
 -1        54-2.29432E+03 1.01865E+04-1.49600E+07 8.91145E+02-5.22297E+05 5.26366E+04
 -1        55 6.44529E+03-3.79648E+03-1.86829E+07 1.45300E+04-5.28181E+05 6.95739E+04
 -1        56 1.43351E+03 6.21384E+04-2.29097E+07-2.03432E+04-6.17247E+05 4.54668E+04
 -1        57 1.29094E+05 3.09176E+05-2.70557E+07-2.85319E+04-5.53239E+05 1.16840E+05
 -1        58-1.23247E+05-3.33992E+05-3.17465E+07 4.22011E+04-7.02758E+05 1.75722E+04
 -1        59 3.00210E+05-2.74732E+05-3.60181E+07 1.98461E+05-2.56868E+05 3.89965E+05
 -1        60-1.98450E+05 6.30988E+05-4.09312E+07-2.56526E+05-7.85227E+05-3.02588E+05
 -1        61 3.49977E+06 4.21067E+06-4.40980E+07-3.74701E+05-1.04868E+05 2.41789E+06
 -1        62-3.62108E+06-5.22029E+06-5.06778E+07 6.89022E+05-1.58848E+06-1.88140E+06
 -1        63 3.62108E+06 5.22029E+06 5.06778E+07-6.89022E+05-1.58848E+06-1.88140E+06
 -1        64-3.49977E+06-4.21067E+06 4.40980E+07 3.74701E+05-1.04868E+05 2.41789E+06
 -1        65 1.98450E+05-6.30988E+05 4.09312E+07 2.56526E+05-7.85227E+05-3.02588E+05
 -1        66-3.00210E+05 2.74732E+05 3.60181E+07-1.98461E+05-2.56868E+05 3.89965E+05
 -1        67 1.23247E+05 3.33992E+05 3.17465E+07-4.22011E+04-7.02758E+05 1.75722E+04
 -1        68-1.29094E+05-3.09176E+05 2.70557E+07 2.85319E+04-5.53239E+05 1.16840E+05
 -1        69-1.43351E+03-6.21384E+04 2.29097E+07 2.03432E+04-6.17247E+05 4.54668E+04
 -1        70-6.44529E+03 3.79648E+03 1.86829E+07-1.45300E+04-5.28181E+05 6.95739E+04
 -1        71 2.29432E+03-1.01865E+04 1.49600E+07-8.91145E+02-5.22297E+05 5.26366E+04
 -1        72-9.83351E+03-5.62169E+04 1.12327E+07 3.99038E+03-4.71770E+05 5.05566E+04
 -1        73-3.10701E+03-4.36659E+04 8.25413E+06 3.97278E+03-4.16438E+05 4.14316E+04
 -1        74-4.61497E+03-4.66912E+04 5.26780E+06 1.14629E+03-3.49157E+05 3.66603E+04
 -1        75-4.78078E+03-5.73563E+04 3.26386E+06 3.86144E+03-2.82339E+05 3.02407E+04
 -1        76-5.47592E+03-5.08573E+04 1.27325E+06 3.48820E+03-2.01132E+05 1.97953E+04
 -1        77-5.74468E+03-6.31970E+04 4.90781E+05 2.66976E+03-8.28402E+04 5.72081E+03
 -1        78 3.62108E+06 5.22029E+06 5.06778E+07 6.89022E+05-1.58848E+06 1.88140E+06
 -1        79-3.49977E+06-4.21067E+06 4.40980E+07-3.74701E+05-1.04868E+05-2.41789E+06
 -1        80 1.98450E+05-6.30988E+05 4.09312E+07-2.56526E+05-7.85227E+05 3.02588E+05
 -1        81-3.00210E+05 2.74732E+05 3.60181E+07 1.98461E+05-2.56868E+05-3.89965E+05
 -1        82 1.23247E+05 3.33992E+05 3.17465E+07 4.22011E+04-7.02758E+05-1.75722E+04
 -1        83-1.29094E+05-3.09176E+05 2.70557E+07-2.85319E+04-5.53239E+05-1.16840E+05
 -1        84-1.43351E+03-6.21384E+04 2.29097E+07-2.03432E+04-6.17247E+05-4.54668E+04
 -1        85-6.44529E+03 3.79648E+03 1.86829E+07 1.45300E+04-5.28181E+05-6.95739E+04
 -1        86 2.29432E+03-1.01865E+04 1.49600E+07 8.91145E+02-5.22297E+05-5.26366E+04
 -1        87-9.83351E+03-5.62169E+04 1.12327E+07-3.99038E+03-4.71770E+05-5.05566E+04
 -1        88-3.10701E+03-4.36659E+04 8.25413E+06-3.97278E+03-4.16438E+05-4.14316E+04
 -1        89-4.61497E+03-4.66912E+04 5.26780E+06-1.14629E+03-3.49157E+05-3.66603E+04
 -1        90-4.78078E+03-5.73563E+04 3.26386E+06-3.86144E+03-2.82339E+05-3.02407E+04
 -1        91-5.47592E+03-5.08573E+04 1.27325E+06-3.48820E+03-2.01132E+05-1.97953E+04
 -1        92-5.74468E+03-6.31970E+04 4.90781E+05-2.66976E+03-8.28402E+04-5.72081E+03
 -1        93-5.26811E+06-4.90901E+06-2.52309E+07-3.38885E-07-3.99185E+06-1.47623E-06
 -1        94 2.21655E-06 3.57069E-06 1.35787E-05 2.73685E+05 2.02498E+06 2.71254E-06
 -1        95 8.82428E-08 1.34110E-07 3.34461E-07-1.53057E-07 3.76825E+05 8.44870E-07
 -1        96-2.05636E-06-3.34717E-06-1.29482E-05-2.73685E+05 2.02498E+06 2.62634E-06
 -1        97 5.26811E+06 4.90901E+06 2.52309E+07 2.10654E-07-3.99185E+06-2.77942E-08
 -1        98 3.72355E+03 8.59637E+04 9.37708E+04-1.80270E-06-6.15138E+03-2.57508E-07
 -1        99 1.23824E-06-1.81554E-06-6.09187E-07-7.98990E+03-4.63700E+04-1.16586E-07
 -1       100-1.47062E-06-3.79411E-06-1.19016E-06-2.09680E-06-3.79041E+04-1.34544E-06
 -1       101-4.58333E-07-1.03553E-06 1.27679E-07 7.98990E+03-4.63700E+04-1.03233E-06
 -1       102-3.72355E+03-8.59637E+04-9.37708E+04 3.97109E-07-6.15138E+03-8.43914E-07
 -1       103-4.04350E+06-5.41688E+06-5.17665E+07-5.92816E-07-2.69357E+06-1.43764E-06
 -1       104 3.05223E+06 3.96348E+06-4.52199E+07-7.26375E+04 3.52058E+05 1.15544E+06
 -1       105 2.60469E+06 3.71630E+06-4.63417E+07 1.76078E-07 8.08983E+05-2.83748E-07
 -1       106 3.05223E+06 3.96348E+06-4.52199E+07 7.26375E+04 3.52058E+05-1.15544E+06
 -1       107 3.06767E+04 1.00316E+06-4.02107E+07 2.83762E-07-5.76606E+05-2.48350E-07
 -1       108 5.63162E+04-4.84445E+05-3.64153E+07 1.07169E+04-2.37295E+05 2.50137E+05
 -1       109-1.87578E+05-6.94157E+05-3.68125E+07 5.98011E-08-2.17723E+05 4.11798E-07
 -1       110 5.63162E+04-4.84445E+05-3.64153E+07-1.07169E+04-2.37295E+05-2.50137E+05
 -1       111-1.47976E+05-3.24806E+05-3.16518E+07-4.55148E-08-5.18535E+05 9.80472E-08
 -1       112 1.18045E+05 2.89459E+05-2.70925E+07 8.82640E+03-5.07704E+05 9.59968E+04
 -1       113 1.06996E+05 2.69742E+05-2.71294E+07-3.45090E-08-4.62170E+05 4.33647E-09
 -1       114 1.18045E+05 2.89459E+05-2.70925E+07-8.82640E+03-5.07704E+05-9.59968E+04
 -1       115 2.32726E+04 8.55346E+04-2.28597E+07 3.51592E-08-4.67405E+05-4.53074E-08
 -1       116-3.29071E+03-1.78074E+04-1.86810E+07 2.40108E+03-4.72077E+05 6.28574E+04
 -1       117-1.30267E+04-3.18183E+04-1.86792E+07-3.06937E-07-4.15974E+05 1.56009E-07
 -1       118-3.29071E+03-1.78074E+04-1.86810E+07-2.40108E+03-4.72077E+05-6.28574E+04
 -1       119 1.42645E+03 8.91781E+03-1.49222E+07 2.10536E-07-3.95600E+05 6.23419E-07
 -1       120 1.37693E+04 5.27380E+04-1.12123E+07-1.04428E+03-4.19839E+05 4.99513E+04
 -1       121 1.77050E+04 4.92591E+04-1.11918E+07 8.13883E-07-3.67907E+05 4.27397E-07
 -1       122 1.37693E+04 5.27380E+04-1.12123E+07 1.04428E+03-4.19839E+05-4.99513E+04
 -1       123 1.32494E+04 4.16275E+04-8.20330E+06 1.36529E-07-3.18633E+05 1.53977E-07
 -1       124 8.63692E+03 4.35631E+04-5.24012E+06-2.23236E+03-3.08453E+05 3.69217E+04
 -1       125 1.26589E+04 4.04350E+04-5.21243E+06-8.52144E-07-2.67749E+05-1.28844E-06
 -1       126 8.63692E+03 4.35631E+04-5.24012E+06 2.23236E+03-3.08453E+05-3.69217E+04
 -1       127 1.54963E+04 5.07573E+04-3.19938E+06 1.71035E-08-2.16515E+05-2.28987E-06
 -1       128 1.37233E+04 4.82553E+04-1.23215E+06-3.48902E+03-1.79047E+05 2.02359E+04
 -1       129 2.19707E+04 4.56533E+04-1.19104E+06 5.35185E-07-1.56961E+05-1.57382E-06
 -1       130 1.37233E+04 4.82553E+04-1.23215E+06 3.48902E+03-1.79047E+05-2.02359E+04
 -1       131 1.95478E+04 6.11123E+04-4.42719E+05-3.72770E-07-6.00983E+04-2.15312E-07
 -1       132-2.83413E-06-3.80212E-06-2.55248E-05-7.70709E+05-2.06107E+06 1.39447E-06
 -1       133 1.33638E+06 1.02009E+06-2.23632E+07 3.12124E+05-2.74867E+06-1.20839E+06
 -1       134 1.63697E-06-1.67638E-08-2.18345E-05 2.49548E+05-5.39248E+06-4.59462E-07
 -1       135-1.33638E+06-1.02009E+06 2.23632E+07 3.12124E+05-2.74867E+06 1.20839E+06
 -1       136 5.08735E-07-4.83938E-07-1.84603E-05 2.51901E+05-4.12597E+06 1.78348E-07
 -1       137 3.70833E+05 3.87634E+05-1.78058E+07-2.09126E+05-2.41686E+06-1.78046E+05
 -1       138-3.65777E-07-3.15718E-07-1.59699E-05-2.19791E+05-4.57685E+06-1.28250E-07
 -1       139-3.70833E+05-3.87634E+05 1.78058E+07-2.09126E+05-2.41686E+06 1.78046E+05
 -1       140-5.94518E-07-2.91213E-07-1.24397E-05-5.43648E+04-4.07959E+06 1.76537E-07
 -1       141 3.65510E+04 1.02516E+05-1.35739E+07 3.33348E+04-2.31983E+06-4.15690E+04
 -1       142-7.45626E-07-6.46629E-07-9.69763E-06 3.81376E+04-4.08643E+06 1.09654E-07
 -1       143-3.65510E+04-1.02516E+05 1.35739E+07 3.33348E+04-2.31983E+06 4.15690E+04
 -1       144 1.20057E-06 7.80718E-07-6.13066E-06 1.65541E+04-3.82210E+06 3.20562E-07
 -1       145 1.66156E+04 4.70216E+04-9.35015E+06-1.22470E+04-2.10826E+06-1.97536E+04
 -1       146 2.89475E-06 2.12267E-06-2.75584E-06-9.96398E+03-3.68833E+06 4.53929E-08
 -1       147-1.66156E+04-4.70216E+04 9.35015E+06-1.22470E+04-2.10826E+06 1.97536E+04
 -1       148 9.26392E-07 1.42093E-06 9.72068E-09-3.06954E+03-3.36844E+06 3.92920E-07
 -1       149 5.66688E+01 4.27542E+04-5.65579E+06 4.55401E+03-1.77879E+06-1.23125E+04
 -1       150-7.32462E-07 9.03782E-07 2.35662E-06 5.11764E+03-3.08580E+06-4.63178E-08
 -1       151-5.66688E+01-4.27542E+04 5.65579E+06 4.55401E+03-1.77879E+06 1.23125E+04
 -1       152-1.45400E-06 4.63024E-07 2.89505E-06 2.75030E+03-2.68535E+06-5.65993E-07
 -1       153-1.20257E+03 5.02480E+04-2.68316E+06 1.14811E+03-1.32275E+06-8.60655E+03
 -1       154-2.40536E-06-6.46041E-07 3.26998E-06 1.14994E+03-2.29633E+06 3.29799E-07
 -1       155 1.20257E+03-5.02480E+04 2.68316E+06 1.14811E+03-1.32275E+06 8.60655E+03
 -1       156-3.18202E-06-2.80418E-06 7.28804E-07 2.61496E+03-1.77365E+06-9.68994E-08
 -1       157-1.93485E+03 5.23802E+04-6.94544E+05 2.75368E+03-7.33093E+05-5.05779E+03
 -1       158-2.20283E-06-3.67412E-06-4.22016E-07 2.01917E+03-1.26505E+06 7.16767E-07
 -1       159 1.93485E+03-5.23802E+04 6.94544E+05 2.75368E+03-7.33093E+05 5.05779E+03
 -1       160-1.70141E-07 2.54178E-07 1.04264E-06 3.91331E+03-6.65952E+05 4.49291E-07
 -1       161 4.04350E+06 5.41688E+06 5.17665E+07 6.76839E-07-2.69357E+06 2.56527E-06
 -1       162-3.05223E+06-3.96348E+06 4.52199E+07 7.26375E+04 3.52058E+05 1.15544E+06
 -1       163-2.60469E+06-3.71630E+06 4.63417E+07-9.02510E-08 8.08983E+05 4.75602E-06
 -1       164-3.05223E+06-3.96348E+06 4.52199E+07-7.26375E+04 3.52058E+05-1.15544E+06
 -1       165-3.06767E+04-1.00316E+06 4.02107E+07-3.00453E-07-5.76606E+05 4.22740E-06
 -1       166-5.63162E+04 4.84445E+05 3.64153E+07-1.07169E+04-2.37295E+05 2.50137E+05
 -1       167 1.87578E+05 6.94157E+05 3.68125E+07-6.12345E-08-2.17723E+05 4.67718E-06
 -1       168-5.63162E+04 4.84445E+05 3.64153E+07 1.07169E+04-2.37295E+05-2.50137E+05
 -1       169 1.47976E+05 3.24806E+05 3.16518E+07-1.23018E-07-5.18535E+05 4.41449E-06
 -1       170-1.18045E+05-2.89459E+05 2.70925E+07-8.82640E+03-5.07704E+05 9.59968E+04
 -1       171-1.06996E+05-2.69742E+05 2.71294E+07-6.44559E-09-4.62170E+05 4.39240E-06
 -1       172-1.18045E+05-2.89459E+05 2.70925E+07 8.82640E+03-5.07704E+05-9.59968E+04
 -1       173-2.32726E+04-8.55346E+04 2.28597E+07-9.04502E-08-4.67405E+05 4.15764E-06
 -1       174 3.29071E+03 1.78074E+04 1.86810E+07-2.40108E+03-4.72077E+05 6.28574E+04
 -1       175 1.30267E+04 3.18183E+04 1.86792E+07-1.60463E-07-4.15974E+05 3.98567E-06
 -1       176 3.29071E+03 1.78074E+04 1.86810E+07 2.40108E+03-4.72077E+05-6.28574E+04
 -1       177-1.42645E+03-8.91781E+03 1.49222E+07 6.44568E-07-3.95600E+05 3.43874E-06
 -1       178-1.37693E+04-5.27380E+04 1.12123E+07 1.04428E+03-4.19839E+05 4.99513E+04
 -1       179-1.77050E+04-4.92591E+04 1.11918E+07 1.35346E-06-3.67907E+05 2.64895E-06
 -1       180-1.37693E+04-5.27380E+04 1.12123E+07-1.04428E+03-4.19839E+05-4.99513E+04
 -1       181-1.32494E+04-4.16275E+04 8.20330E+06 8.85881E-07-3.18633E+05 1.34963E-06
 -1       182-8.63692E+03-4.35631E+04 5.24012E+06 2.23236E+03-3.08453E+05 3.69217E+04
 -1       183-1.26589E+04-4.04350E+04 5.21243E+06-2.88734E-08-2.67749E+05 1.14059E-06
 -1       184-8.63692E+03-4.35631E+04 5.24012E+06-2.23236E+03-3.08453E+05-3.69217E+04
 -1       185-1.54963E+04-5.07573E+04 3.19938E+06-2.39911E-07-2.16515E+05 9.02361E-07
 -1       186-1.37233E+04-4.82553E+04 1.23215E+06 3.48902E+03-1.79047E+05 2.02359E+04
 -1       187-2.19707E+04-4.56533E+04 1.19104E+06-1.04123E-06-1.56961E+05 1.97967E-07
 -1       188-1.37233E+04-4.82553E+04 1.23215E+06-3.48902E+03-1.79047E+05-2.02359E+04
 -1       189-1.95478E+04-6.11123E+04 4.42719E+05-5.31231E-08-6.00983E+04-1.47080E-07
 -1       190 2.75776E-06 3.73414E-06 2.63220E-05 7.70709E+05-2.06107E+06 1.44506E-06
 -1       191-1.33638E+06-1.02009E+06 2.23632E+07-3.12124E+05-2.74867E+06-1.20839E+06
 -1       192-1.93337E-06-3.70201E-07 2.26952E-05-2.49548E+05-5.39248E+06-5.03527E-07
 -1       193 1.33638E+06 1.02009E+06-2.23632E+07-3.12124E+05-2.74867E+06 1.20839E+06
 -1       194-4.84230E-07 3.39816E-07 1.89850E-05-2.51901E+05-4.12597E+06 2.11492E-07
 -1       195-3.70833E+05-3.87634E+05 1.78058E+07 2.09126E+05-2.41686E+06-1.78046E+05
 -1       196 6.94952E-07 4.35597E-07 1.65081E-05 2.19791E+05-4.57685E+06 2.67210E-08
 -1       197 3.70833E+05 3.87634E+05-1.78058E+07 2.09126E+05-2.41686E+06 1.78046E+05
 -1       198 2.75875E-07 3.05590E-07 1.35595E-05 5.43648E+04-4.07959E+06 3.39551E-07
 -1       199-3.65510E+04-1.02516E+05 1.35739E+07-3.33348E+04-2.31983E+06-4.15690E+04
 -1       200-5.37526E-07 1.12006E-07 9.87609E-06-3.81376E+04-4.08643E+06 1.15797E-07
 -1       201 3.65510E+04 1.02516E+05-1.35739E+07-3.33348E+04-2.31983E+06 4.15690E+04
 -1       202-5.43630E-07-5.73476E-07 6.76210E-06-1.65541E+04-3.82210E+06 1.39378E-07
 -1       203-1.66156E+04-4.70216E+04 9.35015E+06 1.22470E+04-2.10826E+06-1.97536E+04
 -1       204-1.45408E-06-2.49333E-06 3.52459E-06 9.96398E+03-3.68833E+06 9.72723E-08
 -1       205 1.66156E+04 4.70216E+04-9.35015E+06 1.22470E+04-2.10826E+06 1.97536E+04
 -1       206-1.23980E-06-2.33730E-06 5.76372E-07 3.06954E+03-3.36844E+06 3.28673E-07
 -1       207-5.66688E+01-4.27542E+04 5.65579E+06-4.55401E+03-1.77879E+06-1.23125E+04
 -1       208-1.65970E-07-8.20374E-07-1.60358E-06-5.11764E+03-3.08580E+06 1.74857E-07
 -1       209 5.66688E+01 4.27542E+04-5.65579E+06-4.55401E+03-1.77879E+06 1.23125E+04
 -1       210 1.38705E-06-1.14345E-07-2.90315E-06-2.75030E+03-2.68535E+06 6.99602E-08
 -1       211 1.20257E+03-5.02480E+04 2.68316E+06-1.14811E+03-1.32275E+06-8.60655E+03
 -1       212 2.83973E-06-3.99368E-07-3.99042E-06-1.14994E+03-2.29633E+06 5.68807E-07
 -1       213-1.20257E+03 5.02480E+04-2.68316E+06-1.14811E+03-1.32275E+06 8.60655E+03
 -1       214 1.71346E-06-1.09083E-06-3.00189E-06-2.61496E+03-1.77365E+06 4.94221E-07
 -1       215 1.93485E+03-5.23802E+04 6.94544E+05-2.75368E+03-7.33093E+05-5.05779E+03
 -1       216 1.40272E-06 1.39084E-07-1.15930E-06-2.01917E+03-1.26505E+06-5.64343E-07
 -1       217-1.93485E+03 5.23802E+04-6.94544E+05-2.75368E+03-7.33093E+05 5.05779E+03
 -1       218 2.98103E-06-4.38456E-07-6.18515E-07-3.91331E+03-6.65952E+05-1.03860E-07
 -1       219 2.78233E-08-3.30620E-08 3.99712E-07-2.01209E-07-3.04267E+06 2.00546E-06
 -1       220 8.58677E+05 7.11237E+05-2.35239E+07-2.27039E-07-1.93946E+06 1.12933E-06
 -1       221-2.44938E-07-9.31323E-10 1.18339E-05 5.25155E+04-5.04019E+06 8.50699E-07
 -1       222-2.94240E-08-2.06172E-07 3.89497E-07-1.89131E-07-4.68790E+06 2.22934E-06
 -1       223 6.72298E-08-3.98606E-07-1.10141E-05-5.25155E+04-5.04019E+06 8.97141E-07
 -1       224-8.58677E+05-7.11237E+05 2.35239E+07 8.08504E-08-1.93946E+06 3.33614E-06
 -1       225 6.69679E-08 4.79864E-07 5.05097E-07-6.50034E-08-3.80238E+06 1.52377E-06
 -1       226 1.44911E+05 2.28159E+05-1.81933E+07 1.38767E-07-2.18461E+06 1.10911E-06
 -1       227 1.07888E-07 6.78483E-07 8.54672E-06 3.20472E+04-4.36417E+06 7.88008E-07
 -1       228 1.95123E-07 1.26359E-06 8.43662E-07 4.79922E-08-4.15150E+06 1.52580E-06
 -1       229 2.51821E-07 6.45028E-07-7.43393E-06-3.20472E+04-4.36417E+06 6.87029E-07
 -1       230-1.44911E+05-2.28159E+05 1.81933E+07-9.14879E-08-2.18461E+06 2.96118E-06
 -1       231-1.90277E-07-3.34279E-07 2.68919E-07 1.14585E-07-3.67849E+06 1.18046E-06
 -1       232 1.52782E+04 5.77009E+04-1.36197E+07-1.08659E-07-2.05752E+06 7.72116E-07
 -1       233-3.22994E-07-6.55389E-07 4.98444E-06-7.79307E+02-3.86965E+06 5.84394E-07
 -1       234-2.83333E-07-1.69404E-06-2.94385E-08 1.04515E-07-3.65286E+06 1.28027E-06
 -1       235-6.01904E-07-1.30595E-06-4.92464E-06 7.79307E+02-3.86965E+06 8.08599E-07
 -1       236-1.52782E+04-5.77009E+04 1.36197E+07 1.92696E-07-2.05752E+06 2.70652E-06
 -1       237-4.64916E-07-1.58455E-06-4.14191E-07 8.10452E-07-3.44115E+06 1.37332E-06
 -1       238 6.35148E+03 2.97019E+04-9.34675E+06 3.31843E-07-1.86177E+06 9.90035E-07
 -1       239-5.46071E-07-2.05280E-06 1.71061E-06-2.16491E+03-3.49795E+06 9.66747E-07
 -1       240-1.17367E-06-2.15044E-06-7.73776E-07 1.46496E-06-3.30757E+06 1.57682E-06
 -1       241 9.27326E-08-2.82969E-07-2.10001E-06 2.16491E+03-3.49795E+06 6.81403E-07
 -1       242-6.35148E+03-2.97019E+04 9.34675E+06 8.99413E-07-1.86177E+06 2.65762E-06
 -1       243-7.17275E-07-1.18988E-06-2.36752E-07 5.28235E-07-3.03085E+06 1.48041E-06
 -1       244 3.08271E+03 3.44541E+04-5.63357E+06 9.20536E-07-1.56792E+06 7.13417E-07
 -1       245-7.02905E-07-1.08212E-06-6.99794E-07-2.17153E+03-2.92686E+06 4.48210E-07
 -1       246 5.05979E-08-6.16792E-07 7.26235E-07 1.48926E-08-2.76792E+06 9.39656E-07
 -1       247 3.04287E-07 5.07033E-07 1.80255E-06 2.17153E+03-2.92686E+06 5.55717E-07
 -1       248-3.08271E+03-3.44541E+04 5.63357E+06 1.78028E-07-1.56792E+06 1.76441E-06
 -1       249-1.10133E-06-8.02773E-07-6.37156E-08-4.24346E-08-2.41320E+06 2.26692E-08
 -1       250 3.07938E+03 4.39180E+04-2.65141E+06-5.93827E-07-1.16380E+06-6.12377E-07
 -1       251-2.68011E-07-4.31650E-07-3.16268E-06-2.23601E+03-2.17810E+06 4.35330E-07
 -1       252-1.99492E-06 4.33721E-07-1.67546E-06 1.97600E-07-2.05986E+06-7.23426E-08
 -1       253-1.50972E-06 3.42668E-07 1.12699E-06 2.23601E+03-2.17810E+06-5.83686E-08
 -1       254-3.07938E+03-4.39180E+04 2.65141E+06 3.50919E-07-1.16380E+06 4.66110E-07
 -1       255-2.18700E-06 1.45822E-06-5.60991E-07 3.89038E-07-1.59319E+06-1.84333E-07
 -1       256 6.83665E+03 4.66885E+04-6.48602E+05 4.36962E-07-6.45805E+05-7.75357E-07
 -1       257-1.22965E-06 7.86351E-07-1.01622E-06-2.01999E+03-1.19985E+06-4.02521E-07
 -1       258-1.81659E-06 3.15469E-06 1.93819E-07 9.27142E-07-1.13465E+06-1.98676E-07
 -1       259-9.86998E-07 6.00818E-07 4.19379E-07 2.01999E+03-1.19985E+06 2.80057E-07
 -1       260-6.83665E+03-4.66885E+04 6.48602E+05 2.37157E-07-6.45805E+05-1.11246E-07
 -1       261-1.17747E-06 3.60789E-07-6.51391E-07-9.06215E-08-5.90860E+05-3.71170E-07
 -3
    1PSTEP                         5           1           1          
    1PGM                1.000000E+00                                  
    1PGK                2.330940E+05                                  
    1PHID                         -1                                  
    1PSUBC                         0                                  
    1PMODE                         3                                  
  100CL  103 7.68397E+01         261                     2    3MODAL      1
 -4  DISP        4    1
 -5  D1          1    2    1    0
 -5  D2          1    2    2    0
 -5  D3          1    2    3    0
 -5  ALL         1    2    0    0    1ALL
 -1         1 0.00000E+00 0.00000E+00 0.00000E+00
 -1         2 0.00000E+00 0.00000E+00 0.00000E+00
 -1         3 0.00000E+00 0.00000E+00 0.00000E+00
 -1         4 0.00000E+00 0.00000E+00 0.00000E+00
 -1         5-6.22789E-03-3.01362E-06-1.81339E-03
 -1         6-6.22789E-03 3.01362E-06 1.81339E-03
 -1         7-6.22789E-03-3.01362E-06 1.81339E-03
 -1         8-6.22789E-03 3.01362E-06-1.81339E-03
 -1         9 0.00000E+00 0.00000E+00 0.00000E+00
 -1        10 0.00000E+00 0.00000E+00 0.00000E+00
 -1        11 0.00000E+00 0.00000E+00 0.00000E+00
 -1        12 0.00000E+00 0.00000E+00 0.00000E+00
 -1        13 0.00000E+00 0.00000E+00 0.00000E+00
 -1        14 0.00000E+00 0.00000E+00 0.00000E+00
 -1        15 0.00000E+00 0.00000E+00 0.00000E+00
 -1        16 0.00000E+00 0.00000E+00 0.00000E+00
 -1        17 0.00000E+00 0.00000E+00 0.00000E+00
 -1        18 0.00000E+00 0.00000E+00 0.00000E+00
 -1        19 0.00000E+00 0.00000E+00 0.00000E+00
 -1        20 0.00000E+00 0.00000E+00 0.00000E+00
 -1        21-6.22734E-03-9.62019E-07-9.05244E-04
 -1        22-6.22557E-03 7.32921E-17-1.64799E-17
 -1        23-6.22734E-03 9.62019E-07 9.05244E-04
 -1        24-6.23162E-03 2.64733E-06 1.81647E-03
 -1        25-6.23489E-03 1.11760E-15 1.81763E-03
 -1        26-6.23162E-03-2.64733E-06 1.81647E-03
 -1        27-6.22734E-03-9.62019E-07 9.05244E-04
 -1        28-6.22557E-03 7.37257E-17 4.77049E-17
 -1        29-6.22734E-03 9.62019E-07-9.05244E-04
 -1        30-6.23162E-03 2.64733E-06-1.81647E-03
 -1        31-6.23489E-03-9.80119E-16-1.81763E-03
 -1        32-6.23162E-03-2.64733E-06-1.81647E-03
 -1        33 3.28872E-04-1.30911E-04-3.85024E-04
 -1        34 9.61452E-04-7.09546E-05-6.66140E-04
 -1        35 1.87097E-03-2.78765E-05-7.93878E-04
 -1        36 2.79508E-03 3.26078E-05-7.87042E-04
 -1        37 3.65178E-03 7.94171E-05-6.56089E-04
 -1        38 4.29121E-03 1.19149E-04-4.29760E-04
 -1        39 4.63992E-03 1.45187E-04-1.26862E-04
 -1        40 4.62721E-03 1.58898E-04 2.20118E-04
 -1        41 4.22645E-03 1.58587E-04 5.81610E-04
 -1        42 3.44103E-03 1.46385E-04 9.28298E-04
 -1        43 2.30349E-03 1.24013E-04 1.23362E-03
 -1        44 8.73304E-04 9.51246E-05 1.48086E-03
 -1        45-7.74046E-04 6.36788E-05 1.65599E-03
 -1        46-2.55713E-03 3.44412E-05 1.76235E-03
 -1        47-4.39385E-03 1.35863E-05 1.80636E-03
 -1        48-4.39385E-03-1.35863E-05-1.80636E-03
 -1        49-2.55713E-03-3.44412E-05-1.76235E-03
 -1        50-7.74046E-04-6.36788E-05-1.65599E-03
 -1        51 8.73304E-04-9.51246E-05-1.48086E-03
 -1        52 2.30349E-03-1.24013E-04-1.23362E-03
 -1        53 3.44103E-03-1.46385E-04-9.28298E-04
 -1        54 4.22645E-03-1.58587E-04-5.81610E-04
 -1        55 4.62721E-03-1.58898E-04-2.20118E-04
 -1        56 4.63992E-03-1.45187E-04 1.26862E-04
 -1        57 4.29121E-03-1.19149E-04 4.29760E-04
 -1        58 3.65178E-03-7.94171E-05 6.56089E-04
 -1        59 2.79508E-03-3.26078E-05 7.87042E-04
 -1        60 1.87097E-03 2.78765E-05 7.93878E-04
 -1        61 9.61452E-04 7.09546E-05 6.66140E-04
 -1        62 3.28872E-04 1.30911E-04 3.85024E-04
 -1        63 3.28872E-04 1.30911E-04-3.85024E-04
 -1        64 9.61452E-04 7.09546E-05-6.66140E-04
 -1        65 1.87097E-03 2.78765E-05-7.93878E-04
 -1        66 2.79508E-03-3.26078E-05-7.87042E-04
 -1        67 3.65178E-03-7.94171E-05-6.56089E-04
 -1        68 4.29121E-03-1.19149E-04-4.29760E-04
 -1        69 4.63992E-03-1.45187E-04-1.26862E-04
 -1        70 4.62721E-03-1.58898E-04 2.20118E-04
 -1        71 4.22645E-03-1.58587E-04 5.81610E-04
 -1        72 3.44103E-03-1.46385E-04 9.28298E-04
 -1        73 2.30349E-03-1.24013E-04 1.23362E-03
 -1        74 8.73304E-04-9.51246E-05 1.48086E-03
 -1        75-7.74046E-04-6.36788E-05 1.65599E-03
 -1        76-2.55713E-03-3.44412E-05 1.76235E-03
 -1        77-4.39385E-03-1.35863E-05 1.80636E-03
 -1        78 3.28872E-04-1.30911E-04 3.85024E-04
 -1        79 9.61452E-04-7.09546E-05 6.66140E-04
 -1        80 1.87097E-03-2.78765E-05 7.93878E-04
 -1        81 2.79508E-03 3.26078E-05 7.87042E-04
 -1        82 3.65178E-03 7.94171E-05 6.56089E-04
 -1        83 4.29121E-03 1.19149E-04 4.29760E-04
 -1        84 4.63992E-03 1.45187E-04 1.26862E-04
 -1        85 4.62721E-03 1.58898E-04-2.20118E-04
 -1        86 4.22645E-03 1.58587E-04-5.81610E-04
 -1        87 3.44103E-03 1.46385E-04-9.28298E-04
 -1        88 2.30349E-03 1.24013E-04-1.23362E-03
 -1        89 8.73304E-04 9.51246E-05-1.48086E-03
 -1        90-7.74046E-04 6.36788E-05-1.65599E-03
 -1        91-2.55713E-03 3.44412E-05-1.76235E-03
 -1        92-4.39385E-03 1.35863E-05-1.80636E-03
 -1        93 0.00000E+00 0.00000E+00 0.00000E+00
 -1        94 0.00000E+00 0.00000E+00 0.00000E+00
 -1        95 0.00000E+00 0.00000E+00 0.00000E+00
 -1        96 0.00000E+00 0.00000E+00 0.00000E+00
 -1        97 0.00000E+00 0.00000E+00 0.00000E+00
 -1        98-6.22926E-03 6.59195E-17-3.68629E-18
 -1        99-6.23530E-03-4.57100E-16-9.08069E-04
 -1       100-6.23412E-03 6.33174E-17 1.40946E-17
 -1       101-6.23530E-03 5.88505E-16 9.08069E-04
 -1       102-6.22926E-03 6.24500E-17 3.23634E-17
 -1       103 2.56429E-04 1.23057E-17 1.55583E-17
 -1       104 9.50258E-04 3.70494E-05 3.05937E-04
 -1       105 9.64700E-04 3.00324E-17 3.00324E-17
 -1       106 9.50258E-04-3.70494E-05-3.05937E-04
 -1       107 1.85017E-03 5.18249E-17 3.78387E-17
 -1       108 2.81155E-03-1.67172E-05 3.72231E-04
 -1       109 2.81918E-03 8.02310E-17 4.33003E-17
 -1       110 2.81155E-03 1.67172E-05-3.72231E-04
 -1       111 3.67377E-03 1.04951E-16 4.68104E-17
 -1       112 4.32362E-03-5.96769E-05 2.01731E-04
 -1       113 4.33569E-03 1.34875E-16 4.43439E-17
 -1       114 4.32362E-03 5.96769E-05-2.01731E-04
 -1       115 4.68590E-03 1.52656E-16 3.81639E-17
 -1       116 4.66861E-03-7.96583E-05-1.12626E-04
 -1       117 4.68183E-03 1.65666E-16 2.84061E-17
 -1       118 4.66861E-03 7.96583E-05 1.12626E-04
 -1       119 4.27779E-03 1.70437E-16 1.56125E-17
 -1       120 3.47842E-03-7.33286E-05-4.57002E-04
 -1       121 3.49038E-03 1.70003E-16 8.67362E-18
 -1       122 3.47842E-03 7.33286E-05 4.57002E-04
 -1       123 2.34396E-03 1.62630E-16 1.73472E-18
 -1       124 8.97444E-04-4.75722E-05-7.27958E-04
 -1       125 9.05443E-04 1.54445E-16-5.20417E-18
 -1       126 8.97444E-04 4.75722E-05 7.27958E-04
 -1       127-7.52899E-04 1.34224E-16-1.25767E-17
 -1       128-2.54850E-03-1.71682E-05-8.70763E-04
 -1       129-2.54471E-03 1.15576E-16-1.86483E-17
 -1       130-2.54850E-03 1.71682E-05 8.70763E-04
 -1       131-4.38961E-03 8.93383E-17-1.99493E-17
 -1       132 4.00776E-04 9.54098E-17-3.83180E-04
 -1       133 1.01413E-03-3.12756E-05-6.80628E-04
 -1       134 1.02201E-03 1.93205E-16-6.79822E-04
 -1       135 1.01413E-03 3.12756E-05-6.80628E-04
 -1       136 1.88948E-03 3.10516E-16-7.99664E-04
 -1       137 2.77698E-03 1.51178E-05-8.01038E-04
 -1       138 2.77457E-03 4.34115E-16-7.92585E-04
 -1       139 2.77698E-03-1.51178E-05-8.01038E-04
 -1       140 3.59268E-03 5.61183E-16-6.61295E-04
 -1       141 4.22543E-03 5.92445E-05-4.37743E-04
 -1       142 4.20450E-03 6.86950E-16-4.33757E-04
 -1       143 4.22543E-03-5.92445E-05-4.37743E-04
 -1       144 4.53239E-03 8.05779E-16-1.29153E-04
 -1       145 4.53810E-03 7.87763E-05 2.18450E-04
 -1       146 4.51017E-03 9.09862E-16 2.19354E-04
 -1       147 4.53810E-03-7.87763E-05 2.18450E-04
 -1       148 4.10886E-03 9.91394E-16 5.82322E-04
 -1       149 3.35892E-03 7.27606E-05 9.32746E-04
 -1       150 3.33267E-03 1.04864E-15 9.30116E-04
 -1       151 3.35892E-03-7.27606E-05 9.32746E-04
 -1       152 2.21116E-03 1.09591E-15 1.23661E-03
 -1       153 8.19800E-04 4.74643E-05 1.48857E-03
 -1       154 8.02286E-04 1.12237E-15 1.48403E-03
 -1       155 8.19800E-04-4.74643E-05 1.48857E-03
 -1       156-8.22211E-04 1.14015E-15 1.65960E-03
 -1       157-2.57677E-03 1.76246E-05 1.76883E-03
 -1       158-2.58429E-03 1.14280E-15 1.76507E-03
 -1       159-2.57677E-03-1.76246E-05 1.76883E-03
 -1       160-4.40559E-03 1.13939E-15 1.80890E-03
 -1       161 2.56429E-04 1.05710E-17-1.06252E-17
 -1       162 9.50258E-04 3.70494E-05-3.05937E-04
 -1       163 9.64700E-04 2.84061E-17-1.99493E-17
 -1       164 9.50258E-04-3.70494E-05 3.05937E-04
 -1       165 1.85017E-03 5.13912E-17-2.58040E-17
 -1       166 2.81155E-03-1.67172E-05-3.72231E-04
 -1       167 2.81918E-03 8.23994E-17-2.68882E-17
 -1       168 2.81155E-03 1.67172E-05 3.72231E-04
 -1       169 3.67377E-03 1.02782E-16-2.40693E-17
 -1       170 4.32362E-03-5.96769E-05-2.01731E-04
 -1       171 4.33569E-03 1.30972E-16-1.97325E-17
 -1       172 4.32362E-03 5.96769E-05 2.01731E-04
 -1       173 4.68590E-03 1.54390E-16-1.36609E-17
 -1       174 4.66861E-03-7.96583E-05 1.12626E-04
 -1       175 4.68183E-03 1.63931E-16-1.30104E-18
 -1       176 4.66861E-03 7.96583E-05-1.12626E-04
 -1       177 4.27779E-03 1.72171E-16 8.89046E-18
 -1       178 3.47842E-03-7.33286E-05 4.57002E-04
 -1       179 3.49038E-03 1.67401E-16 1.58175E-17
 -1       180 3.47842E-03 7.33286E-05-4.57002E-04
 -1       181 2.34396E-03 1.67618E-16 2.58311E-17
 -1       182 8.97444E-04-4.75722E-05 7.27958E-04
 -1       183 9.05443E-04 1.54336E-16 3.34476E-17
 -1       184 8.97444E-04 4.75722E-05-7.27958E-04
 -1       185-7.52899E-04 1.37368E-16 4.00071E-17
 -1       186-2.54850E-03-1.71682E-05 8.70763E-04
 -1       187-2.54471E-03 1.15793E-16 3.84892E-17
 -1       188-2.54850E-03 1.71682E-05-8.70763E-04
 -1       189-4.38961E-03 9.45424E-17 4.42354E-17
 -1       190 4.00776E-04-8.11796E-17 3.83180E-04
 -1       191 1.01413E-03-3.12756E-05 6.80628E-04
 -1       192 1.02201E-03-1.39401E-16 6.79822E-04
 -1       193 1.01413E-03 3.12756E-05 6.80628E-04
 -1       194 1.88948E-03-2.12233E-16 7.99664E-04
 -1       195 2.77698E-03 1.51178E-05 8.01038E-04
 -1       196 2.77457E-03-2.79290E-16 7.92585E-04
 -1       197 2.77698E-03-1.51178E-05 8.01038E-04
 -1       198 3.59268E-03-3.50414E-16 6.61295E-04
 -1       199 4.22543E-03 5.92445E-05 4.37743E-04
 -1       200 4.20450E-03-4.20020E-16 4.33757E-04
 -1       201 4.22543E-03-5.92445E-05 4.37743E-04
 -1       202 4.53239E-03-4.92228E-16 1.29153E-04
 -1       203 4.53810E-03 7.87763E-05-2.18450E-04
 -1       204 4.51017E-03-5.70507E-16-2.19354E-04
 -1       205 4.53810E-03-7.87763E-05-2.18450E-04
 -1       206 4.10886E-03-6.39788E-16-5.82322E-04
 -1       207 3.35892E-03 7.27606E-05-9.32746E-04
 -1       208 3.33267E-03-7.06249E-16-9.30116E-04
 -1       209 3.35892E-03-7.27606E-05-9.32746E-04
 -1       210 2.21116E-03-7.63278E-16-1.23661E-03
 -1       211 8.19800E-04 4.74643E-05-1.48857E-03
 -1       212 8.02286E-04-8.16187E-16-1.48403E-03
 -1       213 8.19800E-04-4.74643E-05-1.48857E-03
 -1       214-8.22211E-04-8.66928E-16-1.65960E-03
 -1       215-2.57677E-03 1.76246E-05-1.76883E-03
 -1       216-2.58429E-03-9.05092E-16-1.76507E-03
 -1       217-2.57677E-03-1.76246E-05-1.76883E-03
 -1       218-4.40559E-03-9.48894E-16-1.80890E-03
 -1       219 3.24099E-04 8.94467E-18 1.70762E-18
 -1       220 1.01692E-03 2.66714E-17 1.60733E-17
 -1       221 1.00653E-03-5.75711E-17 3.17135E-04
 -1       222 1.01963E-03 2.58040E-17 4.39102E-18
 -1       223 1.00653E-03 1.11456E-16-3.17135E-04
 -1       224 1.01692E-03 2.66714E-17-6.39679E-18
 -1       225 1.86833E-03 5.13912E-17 6.50521E-18
 -1       226 2.79981E-03 7.76289E-17 2.61293E-17
 -1       227 2.79087E-03-1.01264E-16 3.83611E-04
 -1       228 2.79737E-03 7.54605E-17 1.07336E-17
 -1       229 2.79087E-03 2.55004E-16-3.83611E-04
 -1       230 2.79981E-03 7.84962E-17-7.15573E-18
 -1       231 3.61712E-03 1.07987E-16 1.14925E-17
 -1       232 4.26981E-03 1.30972E-16 2.71051E-17
 -1       233 4.23711E-03-1.43548E-16 2.08444E-04
 -1       234 4.24909E-03 1.30538E-16 1.44199E-17
 -1       235 4.23711E-03 4.06793E-16-2.08444E-04
 -1       236 4.26981E-03 1.36176E-16-1.51788E-18
 -1       237 4.58025E-03 1.53957E-16 1.58294E-17
 -1       238 4.59290E-03 1.69569E-16 2.27682E-17
 -1       239 4.55234E-03-2.02095E-16-1.11261E-04
 -1       240 4.56576E-03 1.69569E-16 1.40946E-17
 -1       241 4.55234E-03 5.40366E-16 1.11261E-04
 -1       242 4.59290E-03 1.63931E-16 6.61363E-18
 -1       243 4.16189E-03 1.73472E-16 1.30104E-17
 -1       244 3.40847E-03 1.68268E-16 1.17094E-17
 -1       245 3.37065E-03-2.64220E-16-4.60549E-04
 -1       246 3.38282E-03 1.70003E-16 1.23599E-17
 -1       247 3.37065E-03 6.05852E-16 4.60549E-04
 -1       248 3.40847E-03 1.70870E-16 1.61546E-17
 -1       249 2.25254E-03 1.64148E-16 1.32273E-17
 -1       250 8.51940E-04 1.54445E-16 3.25261E-18
 -1       251 8.26493E-04-3.29381E-16-7.34152E-04
 -1       252 8.34457E-04 1.54228E-16 1.47451E-17
 -1       253 8.26493E-04 6.37511E-16 7.34152E-04
 -1       254 8.51940E-04 1.53252E-16 2.29309E-17
 -1       255-8.01307E-04 1.34007E-16 1.17094E-17
 -1       256-2.56490E-03 1.18829E-16-2.38524E-18
 -1       257-2.57647E-03-3.94650E-16-8.75938E-04
 -1       258-2.57314E-03 1.16226E-16 1.35525E-17
 -1       259-2.57647E-03 6.31006E-16 8.75938E-04
 -1       260-2.56490E-03 1.13408E-16 2.45301E-17
 -1       261-4.40232E-03 9.62772E-17 1.27936E-17
 -3
    1PSTEP                         6           1           1          
    1PGM                1.000000E+00                                  
    1PGK                2.330940E+05                                  
    1PHID                         -1                                  
    1PSUBC                         0                                  
    1PMODE                         3                                  
  100CL  103 7.68397E+01         261                     2    3MODAL      1
 -4  STRESS      6    1
 -5  SXX         1    4    1    1
 -5  SYY         1    4    2    2
 -5  SZZ         1    4    3    3
 -5  SXY         1    4    1    2
 -5  SYZ         1    4    2    3
 -5  SZX         1    4    3    1
 -1         1 6.61135E+07 6.83631E+07 2.21142E+08-7.28902E+06 3.57976E+07 2.35152E+07
 -1         2-6.61135E+07-6.83631E+07-2.21142E+08-7.28902E+06-3.57976E+07 2.35152E+07
 -1         3-6.61135E+07-6.83631E+07-2.21142E+08 7.28902E+06 3.57976E+07 2.35152E+07
 -1         4 6.61135E+07 6.83631E+07 2.21142E+08 7.28902E+06-3.57976E+07 2.35152E+07
 -1         5 5.92143E+05-2.22281E+04 4.31701E+06-7.49742E+04 8.95256E+03 6.04650E+04
 -1         6-5.92143E+05 2.22281E+04-4.31701E+06-7.49742E+04-8.95256E+03 6.04650E+04
 -1         7-5.92143E+05 2.22281E+04-4.31701E+06 7.49742E+04 8.95256E+03 6.04650E+04
 -1         8 5.92143E+05-2.22281E+04 4.31701E+06 7.49742E+04-8.95256E+03 6.04650E+04
 -1         9 1.80023E+07 2.71034E+07 1.02031E+08-7.33993E+06 1.79411E+07 1.17453E+07
 -1        10 1.78814E-06 2.73250E-06 7.98516E-06-7.39083E+06 1.39506E-06-2.45687E+04
 -1        11-1.80023E+07-2.71034E+07-1.02031E+08-7.33993E+06-1.79411E+07 1.17453E+07
 -1        12-6.47464E+07-6.71487E+07-2.18462E+08-2.15035E+06-1.74739E+07 3.31125E+07
 -1        13-6.33793E+07-6.59344E+07-2.15781E+08 1.24588E-06 1.58842E-05 4.27097E+07
 -1        14-6.47464E+07-6.71487E+07-2.18462E+08 2.15035E+06 1.74739E+07 3.31125E+07
 -1        15-1.80023E+07-2.71034E+07-1.02031E+08 7.33993E+06 1.79411E+07 1.17453E+07
 -1        16-1.47335E-06-2.10572E-06-5.69224E-06 7.39083E+06 1.10408E-06-2.45687E+04
 -1        17 1.80023E+07 2.71034E+07 1.02031E+08 7.33993E+06-1.79411E+07 1.17453E+07
 -1        18 6.47464E+07 6.71487E+07 2.18462E+08 2.15035E+06-1.74739E+07 3.31125E+07
 -1        19 6.33793E+07 6.59344E+07 2.15781E+08 1.20536E-06-1.58839E-05 4.27097E+07
 -1        20 6.47464E+07 6.71487E+07 2.18462E+08-2.15035E+06 1.74739E+07 3.31125E+07
 -1        21 8.13992E+05-5.19168E+04 1.67422E+06-3.18567E+05-7.56943E+03-7.58456E+05
 -1        22-4.03472E-06-5.51758E-06-8.14442E-07-5.62159E+05 1.86308E-07-1.57738E+06
 -1        23-8.13992E+05 5.19168E+04-1.67422E+06-3.18567E+05 7.56943E+03-7.58456E+05
 -1        24-5.73624E+05-1.26258E+06-4.36032E+06-1.18358E+05 2.75966E+04 7.74551E+04
 -1        25-5.55106E+05-2.54738E+06-4.40363E+06 3.20042E-06 5.43296E-07 9.44452E+04
 -1        26-5.73624E+05-1.26258E+06-4.36032E+06 1.18358E+05-2.75966E+04 7.74551E+04
 -1        27-8.13992E+05 5.19168E+04-1.67422E+06 3.18567E+05-7.56943E+03-7.58456E+05
 -1        28-8.46153E-06 6.78250E-06 6.12694E-07 5.62159E+05 3.75050E-07-1.57738E+06
 -1        29 8.13992E+05-5.19168E+04 1.67422E+06 3.18567E+05 7.56943E+03-7.58456E+05
 -1        30 5.73624E+05 1.26258E+06 4.36032E+06 1.18358E+05 2.75966E+04 7.74551E+04
 -1        31 5.55106E+05 2.54738E+06 4.40363E+06-4.77003E-06-1.89024E-06 9.44452E+04
 -1        32 5.73624E+05 1.26258E+06 4.36032E+06-1.18358E+05-2.75966E+04 7.74551E+04
 -1        33-2.06319E+07-2.08209E+07-1.49594E+08-4.25346E+06-7.50574E+06 9.59446E+06
 -1        34 1.56869E+07 1.55953E+07-7.89877E+07 1.90366E+06 1.06751E+07 3.75340E+06
 -1        35 4.08974E+06 2.60719E+06-2.46986E+07 1.64868E+06 2.89092E+06 6.12023E+06
 -1        36-1.81285E+06-1.21332E+06 3.12803E+07-1.21176E+06 3.64934E+06 4.31615E+06
 -1        37-1.21577E+06-9.79066E+05 7.39630E+07-2.75388E+05 2.28948E+06 4.89625E+06
 -1        38 1.77351E+06 8.87935E+05 1.16704E+08 2.80178E+05 2.17347E+06 2.96310E+06
 -1        39 7.82527E+05 3.65362E+05 1.35992E+08 1.86970E+05 1.17754E+06 2.13444E+06
 -1        40 3.52698E+05-1.54883E+04 1.54306E+08-2.57087E+04 3.65841E+05 4.35197E+05
 -1        41 3.67344E+05 5.81806E+04 1.48158E+08 5.21823E+04-3.86817E+05-5.82894E+05
 -1        42 4.61145E+05 1.13558E+05 1.41102E+08 5.04783E+04-1.06509E+06-1.93774E+06
 -1        43 2.91508E+05 8.78935E+04 1.15766E+08 5.04330E+04-1.48247E+06-2.53606E+06
 -1        44 5.27444E+04-1.87492E+04 8.97080E+07 7.57090E+03-1.85400E+06-3.24751E+06
 -1        45-9.99039E+04-2.02669E+04 5.92237E+07-2.86441E+04-1.78725E+06-3.08124E+06
 -1        46-1.51839E+05-6.74970E+04 2.85874E+07-1.74142E+04-1.59084E+06-2.89791E+06
 -1        47-5.73984E+05-1.87100E+05 1.11611E+07-7.57752E+04-7.45086E+05-1.37270E+06
 -1        48 5.73984E+05 1.87100E+05-1.11611E+07-7.57752E+04 7.45086E+05-1.37270E+06
 -1        49 1.51839E+05 6.74970E+04-2.85874E+07-1.74142E+04 1.59084E+06-2.89791E+06
 -1        50 9.99039E+04 2.02669E+04-5.92237E+07-2.86441E+04 1.78725E+06-3.08124E+06
 -1        51-5.27444E+04 1.87492E+04-8.97080E+07 7.57090E+03 1.85400E+06-3.24751E+06
 -1        52-2.91508E+05-8.78935E+04-1.15766E+08 5.04330E+04 1.48247E+06-2.53606E+06
 -1        53-4.61145E+05-1.13558E+05-1.41102E+08 5.04783E+04 1.06509E+06-1.93774E+06
 -1        54-3.67344E+05-5.81806E+04-1.48158E+08 5.21823E+04 3.86817E+05-5.82894E+05
 -1        55-3.52698E+05 1.54883E+04-1.54306E+08-2.57087E+04-3.65841E+05 4.35197E+05
 -1        56-7.82527E+05-3.65362E+05-1.35992E+08 1.86970E+05-1.17754E+06 2.13444E+06
 -1        57-1.77351E+06-8.87935E+05-1.16704E+08 2.80178E+05-2.17347E+06 2.96310E+06
 -1        58 1.21577E+06 9.79066E+05-7.39630E+07-2.75388E+05-2.28948E+06 4.89625E+06
 -1        59 1.81285E+06 1.21332E+06-3.12803E+07-1.21176E+06-3.64934E+06 4.31615E+06
 -1        60-4.08974E+06-2.60719E+06 2.46986E+07 1.64868E+06-2.89092E+06 6.12023E+06
 -1        61-1.56869E+07-1.55953E+07 7.89877E+07 1.90366E+06-1.06751E+07 3.75340E+06
 -1        62 2.06319E+07 2.08209E+07 1.49594E+08-4.25346E+06 7.50574E+06 9.59446E+06
 -1        63-2.06319E+07-2.08209E+07-1.49594E+08 4.25346E+06 7.50574E+06 9.59446E+06
 -1        64 1.56869E+07 1.55953E+07-7.89877E+07-1.90366E+06-1.06751E+07 3.75340E+06
 -1        65 4.08974E+06 2.60719E+06-2.46986E+07-1.64868E+06-2.89092E+06 6.12023E+06
 -1        66-1.81285E+06-1.21332E+06 3.12803E+07 1.21176E+06-3.64934E+06 4.31615E+06
 -1        67-1.21577E+06-9.79066E+05 7.39630E+07 2.75388E+05-2.28948E+06 4.89625E+06
 -1        68 1.77351E+06 8.87935E+05 1.16704E+08-2.80178E+05-2.17347E+06 2.96310E+06
 -1        69 7.82527E+05 3.65362E+05 1.35992E+08-1.86970E+05-1.17754E+06 2.13444E+06
 -1        70 3.52698E+05-1.54883E+04 1.54306E+08 2.57087E+04-3.65841E+05 4.35197E+05
 -1        71 3.67344E+05 5.81806E+04 1.48158E+08-5.21823E+04 3.86817E+05-5.82894E+05
 -1        72 4.61145E+05 1.13558E+05 1.41102E+08-5.04783E+04 1.06509E+06-1.93774E+06
 -1        73 2.91508E+05 8.78935E+04 1.15766E+08-5.04330E+04 1.48247E+06-2.53606E+06
 -1        74 5.27444E+04-1.87492E+04 8.97080E+07-7.57090E+03 1.85400E+06-3.24751E+06
 -1        75-9.99039E+04-2.02669E+04 5.92237E+07 2.86441E+04 1.78725E+06-3.08124E+06
 -1        76-1.51839E+05-6.74970E+04 2.85874E+07 1.74142E+04 1.59084E+06-2.89791E+06
 -1        77-5.73984E+05-1.87100E+05 1.11611E+07 7.57752E+04 7.45086E+05-1.37270E+06
 -1        78 2.06319E+07 2.08209E+07 1.49594E+08 4.25346E+06-7.50574E+06 9.59446E+06
 -1        79-1.56869E+07-1.55953E+07 7.89877E+07-1.90366E+06 1.06751E+07 3.75340E+06
 -1        80-4.08974E+06-2.60719E+06 2.46986E+07-1.64868E+06 2.89092E+06 6.12023E+06
 -1        81 1.81285E+06 1.21332E+06-3.12803E+07 1.21176E+06 3.64934E+06 4.31615E+06
 -1        82 1.21577E+06 9.79066E+05-7.39630E+07 2.75388E+05 2.28948E+06 4.89625E+06
 -1        83-1.77351E+06-8.87935E+05-1.16704E+08-2.80178E+05 2.17347E+06 2.96310E+06
 -1        84-7.82527E+05-3.65362E+05-1.35992E+08-1.86970E+05 1.17754E+06 2.13444E+06
 -1        85-3.52698E+05 1.54883E+04-1.54306E+08 2.57087E+04 3.65841E+05 4.35197E+05
 -1        86-3.67344E+05-5.81806E+04-1.48158E+08-5.21823E+04-3.86817E+05-5.82894E+05
 -1        87-4.61145E+05-1.13558E+05-1.41102E+08-5.04783E+04-1.06509E+06-1.93774E+06
 -1        88-2.91508E+05-8.78935E+04-1.15766E+08-5.04330E+04-1.48247E+06-2.53606E+06
 -1        89-5.27444E+04 1.87492E+04-8.97080E+07-7.57090E+03-1.85400E+06-3.24751E+06
 -1        90 9.99039E+04 2.02669E+04-5.92237E+07 2.86441E+04-1.78725E+06-3.08124E+06
 -1        91 1.51839E+05 6.74970E+04-2.85874E+07 1.74142E+04-1.59084E+06-2.89791E+06
 -1        92 5.73984E+05 1.87100E+05-1.11611E+07 7.57752E+04-7.45086E+05-1.37270E+06
 -1        93 8.21427E-07 1.28150E-06 4.17419E-06-2.25216E+06 1.05162E-06 9.11625E+06
 -1        94 1.65439E+07 2.59505E+07 9.96462E+07 1.52946E-06-7.59581E-06 3.04834E+07
 -1        95 1.08965E-07 1.70432E-07 7.31088E-07 1.61980E-06 7.66056E-07 1.82571E+07
 -1        96-1.65439E+07-2.59505E+07-9.96462E+07 1.31596E-06 8.36203E-06 3.04834E+07
 -1        97-5.56931E-07-7.97212E-07-2.29664E-06 2.25216E+06 9.64006E-07 9.11625E+06
 -1        98-3.69153E-06-2.90439E-06-1.37952E-06-6.05543E+05-1.26183E-06-1.18732E+06
 -1        99 7.72802E+05 1.29499E+06 1.94720E+06-2.33686E-06-1.85850E-06-3.51410E+05
 -1       100-4.51627E-06-3.82280E-06-2.93591E-06-2.42359E-06-2.09073E-06-7.97266E+05
 -1       101-7.72802E+05-1.29499E+06-1.94720E+06-8.71572E-07-9.05704E-07-3.51410E+05
 -1       102-7.07281E-06-2.85938E-07-1.65729E-06 6.05543E+05-5.48229E-07-1.18732E+06
 -1       103 9.83477E-07 9.14093E-07 6.79959E-06-5.16636E+06 6.18631E-07 2.75156E+07
 -1       104-2.73016E+06-6.01321E+06 4.08173E+07 1.12297E+06-5.18676E+06 2.49612E+07
 -1       105 6.48201E-07-4.91040E-07 4.77443E-06 3.42283E+05-1.52264E-07 4.61691E+07
 -1       106 2.73016E+06 6.01321E+06-4.08173E+07 1.12297E+06 5.18676E+06 2.49612E+07
 -1       107 8.44710E-07-2.31434E-07 2.84309E-06 1.12423E+06 4.90400E-07 3.89332E+07
 -1       108-1.50095E+06-2.21342E+05-1.61211E+07-1.03787E+06-1.53816E+06 2.06631E+07
 -1       109 4.04427E-07 1.51631E-08 2.20584E-06-8.63978E+05 2.30852E-07 3.70101E+07
 -1       110 1.50095E+06 2.21342E+05 1.61211E+07-1.03787E+06 1.53816E+06 2.06631E+07
 -1       111-1.43179E-06-2.11934E-06-1.08674E-06 4.57402E+04 2.97441E-08 2.88202E+07
 -1       112-9.57466E+05-2.47742E+05-5.76584E+07 3.98094E+05-9.14741E+05 1.27840E+07
 -1       113-2.30095E-06-4.75626E-06-3.93810E-06 5.16009E+05-1.40091E-07 2.26048E+07
 -1       114 9.57466E+05 2.47742E+05 5.76584E+07 3.98094E+05 9.14741E+05 1.27840E+07
 -1       115-2.95654E-06-1.81748E-06-4.14485E-06 4.42864E+05-1.74623E-07 1.31006E+07
 -1       116-7.04682E+05 3.69723E+04-7.65912E+07 1.32783E+05-1.48097E+05 2.42792E+06
 -1       117-5.36884E-06 3.11687E-07-7.03894E-06 2.91274E+05 4.92320E-07 4.42065E+06
 -1       118 7.04682E+05-3.69723E+04 7.65912E+07 1.32783E+05 1.48097E+05 2.42792E+06
 -1       119-1.81529E-06-8.44913E-07-4.89689E-06 3.16605E+05 4.32919E-07-3.96215E+06
 -1       120-4.72985E+05 2.67856E+04-7.00711E+07 1.60585E+05 4.40528E+05-6.97546E+06
 -1       121 1.48805E-06-1.93019E-06-2.58500E-06 2.70693E+05 1.32910E-07-1.20132E+07
 -1       122 4.72985E+05-2.67856E+04 7.00711E+07 1.60585E+05-4.40528E+05-6.97546E+06
 -1       123-5.96687E-07-2.01297E-06-4.19153E-06 1.77629E+05 3.29601E-08-1.65924E+07
 -1       124-1.35808E+05 1.18415E+03-4.47742E+07 2.80826E+04 7.64084E+05-1.21163E+07
 -1       125-1.66579E-06-1.50353E-06-4.00876E-06 4.85943E+04-7.74191E-07-2.09851E+07
 -1       126 1.35808E+05-1.18415E+03 4.47742E+07 2.80826E+04-7.64084E+05-1.21163E+07
 -1       127 1.68147E-06 1.76387E-06-1.46998E-06-8.19040E+04-4.15486E-07-1.94557E+07
 -1       128 2.37552E+05-2.95407E+04-1.46497E+07-8.77445E+04 6.65871E+05-1.03786E+07
 -1       129 5.46005E-06 6.74665E-06 1.88587E-06-1.58075E+05-2.35355E-07-1.78593E+07
 -1       130-2.37552E+05 2.95407E+04 1.46497E+07-8.77445E+04-6.65871E+05-1.03786E+07
 -1       131 8.32428E-07 1.34803E-06 1.02783E-06-3.88509E+05-6.69679E-07-9.81323E+06
 -1       132-2.15611E+07-2.75387E+07-1.55371E+08 1.19105E-06 2.32662E-05 1.56443E+07
 -1       133 1.51427E+07 9.65904E+06-8.25447E+07 2.81733E+05 6.30002E+06 5.00963E+05
 -1       134 1.45985E+07 3.72280E+06-8.61017E+07-4.80795E-08 3.14288E-05-2.75147E+06
 -1       135 1.51427E+07 9.65904E+06-8.25447E+07-2.81733E+05-6.30002E+06 5.00963E+05
 -1       136 4.70379E+06-4.73893E+05-2.43248E+07-9.56876E-07 3.21635E-05 2.72562E+06
 -1       137-2.02568E+06 2.36991E+04 3.11884E+07-1.92278E+05 3.63453E+06 3.46724E+06
 -1       138-2.23850E+06 1.26072E+06 3.10966E+07-7.13917E-07 3.20241E-05 2.61833E+06
 -1       139-2.02568E+06 2.36991E+04 3.11884E+07 1.92278E+05-3.63453E+06 3.46724E+06
 -1       140-1.24955E+06 1.15939E+06 7.54643E+07-1.28199E-06 3.26396E-05 3.01851E+06
 -1       141 1.73677E+06 1.48561E+06 1.17501E+08 8.84963E+04 1.99183E+06 2.18860E+06
 -1       142 1.70002E+06 2.08329E+06 1.18297E+08-1.10370E-06 3.34876E-05 1.41410E+06
 -1       143 1.73677E+06 1.48561E+06 1.17501E+08-8.84963E+04-1.99183E+06 2.18860E+06
 -1       144 8.20983E+05 2.01217E+06 1.37699E+08 9.51622E-07 3.05879E-05 1.15756E+06
 -1       145 3.25689E+05 9.92970E+05 1.55183E+08 5.70128E+04 3.86957E+05 3.23784E+05
 -1       146 2.98679E+05 2.00143E+06 1.56060E+08 2.35796E-06 2.73783E-05 2.12370E+05
 -1       147 3.25689E+05 9.92970E+05 1.55183E+08-5.70128E+04-3.86957E+05 3.23784E+05
 -1       148 3.57293E+05 1.75955E+06 1.49714E+08 1.67730E-06 2.18941E-05-3.16665E+05
 -1       149 4.56818E+05 7.97714E+05 1.41773E+08 5.42800E+04-1.08232E+06-1.51681E+06
 -1       150 4.52492E+05 1.48187E+06 1.42445E+08 6.18027E-07 1.79210E-05-1.09588E+06
 -1       151 4.56818E+05 7.97714E+05 1.41773E+08-5.42800E+04 1.08232E+06-1.51681E+06
 -1       152 2.72203E+05 9.16709E+05 1.16569E+08 3.87088E-07 1.48051E-05-1.41260E+06
 -1       153 3.86571E+04 1.37071E+05 8.98756E+07 2.11907E+04-1.87856E+06-2.52583E+06
 -1       154 2.45698E+04 2.92891E+05 9.00431E+07 9.55828E-07 1.12185E-05-1.80415E+06
 -1       155 3.86571E+04 1.37071E+05 8.98756E+07-2.11907E+04 1.87856E+06-2.52583E+06
 -1       156-6.56656E+04-4.50226E+05 5.88985E+07 3.17450E-08 8.85909E-06-1.72600E+06
 -1       157-1.71688E+05-7.11127E+05 2.79700E+07-3.93349E+04-1.60329E+06-2.27336E+06
 -1       158-1.91538E+05-1.35476E+06 2.73527E+07-1.98285E-06 6.63305E-06-1.64880E+06
 -1       159-1.71688E+05-7.11127E+05 2.79700E+07 3.93349E+04 1.60329E+06-2.27336E+06
 -1       160-6.00955E+05-2.13761E+06 1.04525E+07 3.06572E-07 4.08984E-06-7.44108E+05
 -1       161-5.69038E-07-8.60076E-07-4.44055E-06 5.16636E+06 5.98608E-07 2.75156E+07
 -1       162 2.73016E+06 6.01321E+06-4.08173E+07-1.12297E+06-5.18676E+06 2.49612E+07
 -1       163 2.14204E-08-2.66824E-07-3.39001E-06-3.42283E+05-1.12224E-07 4.61691E+07
 -1       164-2.73016E+06-6.01321E+06 4.08173E+07-1.12297E+06 5.18676E+06 2.49612E+07
 -1       165 9.49949E-07 9.20612E-07-7.47852E-07-1.12423E+06 4.02040E-07 3.89332E+07
 -1       166 1.50095E+06 2.21342E+05 1.61211E+07 1.03787E+06-1.53816E+06 2.06631E+07
 -1       167 2.01850E-06 2.32983E-06 2.13040E-06 8.63978E+05-3.98722E-08 3.70101E+07
 -1       168-1.50095E+06-2.21342E+05-1.61211E+07 1.03787E+06 1.53816E+06 2.06631E+07
 -1       169 5.82659E-07-2.77361E-06 9.37376E-07-4.57402E+04 8.38772E-08 2.88202E+07
 -1       170 9.57466E+05 2.47742E+05 5.76584E+07-3.98094E+05-9.14741E+05 1.27840E+07
 -1       171 2.72994E-08-6.03806E-06-9.77889E-08-5.16009E+05 4.97545E-07 2.26048E+07
 -1       172-9.57466E+05-2.47742E+05-5.76584E+07-3.98094E+05 9.14741E+05 1.27840E+07
 -1       173-3.01440E-06-1.75973E-06 2.55834E-06-4.42864E+05-1.33523E-06 1.31006E+07
 -1       174 7.04682E+05-3.69723E+04 7.65912E+07-1.32783E+05-1.48097E+05 2.42792E+06
 -1       175-6.04818E-06 1.18470E-06 4.49177E-06-2.91274E+05-5.50317E-07 4.42065E+06
 -1       176-7.04682E+05 3.69723E+04-7.65912E+07-1.32783E+05 1.48097E+05 2.42792E+06
 -1       177-1.63936E-06-3.00584E-07 3.00165E-06-3.16605E+05-3.23125E-07-3.96215E+06
 -1       178 4.72985E+05-2.67856E+04 7.00711E+07-1.60585E+05 4.40528E+05-6.97546E+06
 -1       179 2.89240E-06-9.09866E-07 3.68757E-06-2.70693E+05-6.29203E-07-1.20132E+07
 -1       180-4.72985E+05 2.67856E+04-7.00711E+07-1.60585E+05-4.40528E+05-6.97546E+06
 -1       181 2.41789E-06 1.59508E-06 4.19794E-06-1.77629E+05 5.09608E-08-1.65924E+07
 -1       182 1.35808E+05-1.18415E+03 4.47742E+07-2.80826E+04 7.64084E+05-1.21163E+07
 -1       183 1.97091E-06 3.69591E-06 4.33112E-06-4.85943E+04 2.51312E-08-2.09851E+07
 -1       184-1.35808E+05 1.18415E+03-4.47742E+07-2.80826E+04-7.64084E+05-1.21163E+07
 -1       185 1.26357E-06 3.45640E-06 1.88081E-06 8.19040E+04 1.75321E-07-1.94557E+07
 -1       186-2.37552E+05 2.95407E+04 1.46497E+07 8.77445E+04 6.65871E+05-1.03786E+07
 -1       187 2.15376E-06 3.55847E-06 1.88133E-06 1.58075E+05-2.45636E-07-1.78593E+07
 -1       188 2.37552E+05-2.95407E+04-1.46497E+07 8.77445E+04-6.65871E+05-1.03786E+07
 -1       189-1.92257E-06 5.61451E-06 3.10689E-06 3.88509E+05 3.25090E-08-9.81323E+06
 -1       190 2.15611E+07 2.75387E+07 1.55371E+08 9.67528E-07-2.10811E-05 1.56443E+07
 -1       191-1.51427E+07-9.65904E+06 8.25447E+07-2.81733E+05 6.30002E+06 5.00963E+05
 -1       192-1.45985E+07-3.72280E+06 8.61017E+07 5.84405E-08-2.82036E-05-2.75147E+06
 -1       193-1.51427E+07-9.65904E+06 8.25447E+07 2.81733E+05-6.30002E+06 5.00963E+05
 -1       194-4.70379E+06 4.73893E+05 2.43248E+07-4.96162E-07-2.95164E-05 2.72562E+06
 -1       195 2.02568E+06-2.36991E+04-3.11884E+07 1.92278E+05 3.63453E+06 3.46724E+06
 -1       196 2.23850E+06-1.26072E+06-3.10966E+07-2.51981E-07-2.95518E-05 2.61833E+06
 -1       197 2.02568E+06-2.36991E+04-3.11884E+07-1.92278E+05-3.63453E+06 3.46724E+06
 -1       198 1.24955E+06-1.15939E+06-7.54643E+07 6.24976E-07-3.02533E-05 3.01851E+06
 -1       199-1.73677E+06-1.48561E+06-1.17501E+08-8.84963E+04 1.99183E+06 2.18860E+06
 -1       200-1.70002E+06-2.08329E+06-1.18297E+08 1.09628E-06-3.04112E-05 1.41410E+06
 -1       201-1.73677E+06-1.48561E+06-1.17501E+08 8.84963E+04-1.99183E+06 2.18860E+06
 -1       202-8.20983E+05-2.01217E+06-1.37699E+08-5.38119E-07-2.92719E-05 1.15756E+06
 -1       203-3.25689E+05-9.92970E+05-1.55183E+08-5.70128E+04 3.86957E+05 3.23784E+05
 -1       204-2.98679E+05-2.00143E+06-1.56060E+08-1.73748E-06-2.70353E-05 2.12370E+05
 -1       205-3.25689E+05-9.92970E+05-1.55183E+08 5.70128E+04-3.86957E+05 3.23784E+05
 -1       206-3.57293E+05-1.75955E+06-1.49714E+08-1.62487E-07-2.25157E-05-3.16665E+05
 -1       207-4.56818E+05-7.97714E+05-1.41773E+08-5.42800E+04-1.08232E+06-1.51681E+06
 -1       208-4.52492E+05-1.48187E+06-1.42445E+08 1.19476E-06-1.85887E-05-1.09588E+06
 -1       209-4.56818E+05-7.97714E+05-1.41773E+08 5.42800E+04 1.08232E+06-1.51681E+06
 -1       210-2.72203E+05-9.16709E+05-1.16569E+08 1.19548E-06-1.53576E-05-1.41260E+06
 -1       211-3.86571E+04-1.37071E+05-8.98756E+07-2.11907E+04-1.87856E+06-2.52583E+06
 -1       212-2.45698E+04-2.92891E+05-9.00431E+07 9.50109E-07-1.31607E-05-1.80415E+06
 -1       213-3.86571E+04-1.37071E+05-8.98756E+07 2.11907E+04 1.87856E+06-2.52583E+06
 -1       214 6.56656E+04 4.50226E+05-5.88985E+07-2.55459E-07-9.24815E-06-1.72600E+06
 -1       215 1.71688E+05 7.11127E+05-2.79700E+07 3.93349E+04-1.60329E+06-2.27336E+06
 -1       216 1.91538E+05 1.35476E+06-2.73527E+07 6.77373E-07-6.16210E-06-1.64880E+06
 -1       217 1.71688E+05 7.11127E+05-2.79700E+07-3.93349E+04 1.60329E+06-2.27336E+06
 -1       218 6.00955E+05 2.13761E+06-1.04525E+07-1.13065E-06-4.75609E-06-7.44108E+05
 -1       219-8.78703E-07 5.30854E-08 8.19098E-07 2.06151E-06 9.13911E-07 3.02957E+07
 -1       220-3.37139E-07 1.35042E-08 2.73157E-06-1.27964E+06 6.37330E-07 4.04412E+07
 -1       221-1.77528E+06 1.98377E+05 4.48814E+07 7.83009E-07-1.27013E-05 1.59810E+07
 -1       222-1.26613E-06 2.18861E-08 5.56698E-07 1.78919E-06 1.52545E-06 3.47134E+07
 -1       223 1.77528E+06-1.98377E+05-4.48814E+07 1.01153E-06 1.58393E-05 1.59810E+07
 -1       224-5.94184E-07-3.70666E-07-1.48220E-06 1.27964E+06 7.55877E-07 4.04412E+07
 -1       225-8.41450E-07 1.46101E-07 1.02026E-06 3.14030E-07 1.10004E-06 2.75106E+07
 -1       226-2.13680E-07-1.42623E-07 1.47655E-06 1.55505E+05 8.69710E-07 3.07098E+07
 -1       227-1.60584E+06-1.59040E+06-1.61517E+07-2.99886E-07-1.35690E-05 1.35140E+07
 -1       228-8.93750E-07-1.30931E-07 7.47736E-07-3.02112E-07 1.42680E-06 2.44096E+07
 -1       229 1.60584E+06 1.59040E+06 1.61517E+07-4.85190E-07 1.62319E-05 1.35140E+07
 -1       230 5.31349E-07 1.18425E-06 1.43918E-06-1.55505E+05 6.52537E-07 3.07098E+07
 -1       231-2.39117E-07 1.94265E-06 1.40845E-06 1.03493E-07 1.32881E-06 1.84476E+07
 -1       232-1.31276E-06-1.61567E-06-9.56701E-07 3.24328E+05 5.86879E-07 1.86932E+07
 -1       233-7.95944E+05-8.79938E+05-5.86947E+07 7.41959E-07-1.43236E-05 8.09785E+06
 -1       234-7.28935E-07 4.11463E-06 2.55834E-06 3.57575E-07 7.03578E-07 1.47816E+07
 -1       235 7.95944E+05 8.79938E+05 5.86947E+07-3.88101E-07 1.65653E-05 8.09785E+06
 -1       236-5.52915E-07 3.33064E-07 1.49710E-06-3.24328E+05 2.95418E-07 1.86932E+07
 -1       237-4.30853E-07 5.63727E-07 6.61239E-08 3.90421E-07 5.68572E-07 8.51180E+06
 -1       238-1.56369E-06 3.16053E-07-3.47802E-06 3.73995E+05-5.24706E-08 3.64387E+06
 -1       239-6.69750E+05-1.05293E+06-7.77476E+07-4.91651E-07-1.32017E-05 1.53973E+06
 -1       240 2.16733E-06-2.12764E-06-8.52859E-07 6.87600E-07-3.45510E-07 2.86709E+06
 -1       241 6.69750E+05 1.05293E+06 7.77476E+07 1.48949E-06 1.30277E-05 1.53973E+06
 -1       242-1.97746E-06-1.69552E-06 1.35158E-06-3.73995E+05-3.22034E-07 3.64387E+06
 -1       243-1.52213E-08-4.06588E-07-4.28176E-07-9.89821E-07-3.84571E-07-2.64008E+06
 -1       244-1.00123E-06-5.69761E-07-1.98657E-06 2.74494E+05-4.51393E-07-9.93207E+06
 -1       245-4.39861E+05-7.09545E+05-7.09454E+07-1.36492E-06-9.09375E-06-4.47342E+06
 -1       246-1.86388E-06 1.42683E-06-4.48432E-07-3.33245E-06-2.18195E-07-7.85096E+06
 -1       247 4.39861E+05 7.09545E+05 7.09454E+07-1.06114E-06 8.54171E-06-4.47342E+06
 -1       248 1.32754E-06 5.76561E-07 2.08942E-06-2.74494E+05-1.49448E-08-9.93207E+06
 -1       249 2.66977E-07 1.20329E-06 2.36323E-07-1.92462E-06 1.58754E-07-1.08480E+07
 -1       250 2.85247E-07-5.24567E-07-2.27668E-06 6.22141E+04-3.15878E-07-1.73372E+07
 -1       251-1.13393E+05-1.64668E+05-4.49835E+07 2.93199E-07-6.58835E-06-7.74670E+06
 -1       252 1.67808E-06 5.63814E-08-5.61879E-07-3.60978E-07-3.35996E-07-1.36892E+07
 -1       253 1.13393E+05 1.64668E+05 4.49835E+07 2.98794E-07 5.28127E-06-7.74670E+06
 -1       254 1.54541E-06 1.67712E-06 1.87597E-06-6.22141E+04-3.94648E-07-1.73372E+07
 -1       255-1.58942E-06-2.45737E-06-1.13953E-06-4.35317E-07-3.52389E-07-1.27610E+07
 -1       256 1.06273E-06 1.51459E-06-1.84751E-07-1.79996E+05 4.48483E-07-1.47952E+07
 -1       257 2.58104E+05 6.59439E+05-1.38818E+07-4.85395E-07-2.87403E-06-6.68991E+06
 -1       258-2.75488E-06-4.16949E-06-1.94415E-06-7.01775E-08 3.49522E-07-1.17310E+07
 -1       259-2.58104E+05-6.59439E+05 1.38818E+07-2.37522E-07 3.45902E-06-6.68991E+06
 -1       260-1.07248E-08-5.31523E-07 1.24215E-07 1.79996E+05-3.39467E-07-1.47952E+07
 -1       261-2.13800E-06-3.67942E-06-3.02977E-06-1.15282E-06-8.89806E-07-6.28626E+06
 -3
    1PSTEP                         7           1           1          
    1PGM                1.000000E+00                                  
    1PGK                2.985047E+05                                  
    1PHID                         -1                                  
    1PSUBC                         0                                  
    1PMODE                         4                                  
  100CL  104 8.69552E+01         261                     2    4MODAL      1
 -4  DISP        4    1
 -5  D1          1    2    1    0
 -5  D2          1    2    2    0
 -5  D3          1    2    3    0
 -5  ALL         1    2    0    0    1ALL
 -1         1 0.00000E+00 0.00000E+00 0.00000E+00
 -1         2 0.00000E+00 0.00000E+00 0.00000E+00
 -1         3 0.00000E+00 0.00000E+00 0.00000E+00
 -1         4 0.00000E+00 0.00000E+00 0.00000E+00
 -1         5 6.72621E-03-4.46614E-03 2.84443E-05
 -1         6 6.72621E-03 4.46614E-03-2.84443E-05
 -1         7-6.72621E-03 4.46614E-03 2.84443E-05
 -1         8-6.72621E-03-4.46614E-03-2.84443E-05
 -1         9 0.00000E+00 0.00000E+00 0.00000E+00
 -1        10 0.00000E+00 0.00000E+00 0.00000E+00
 -1        11 0.00000E+00 0.00000E+00 0.00000E+00
 -1        12 0.00000E+00 0.00000E+00 0.00000E+00
 -1        13 0.00000E+00 0.00000E+00 0.00000E+00
 -1        14 0.00000E+00 0.00000E+00 0.00000E+00
 -1        15 0.00000E+00 0.00000E+00 0.00000E+00
 -1        16 0.00000E+00 0.00000E+00 0.00000E+00
 -1        17 0.00000E+00 0.00000E+00 0.00000E+00
 -1        18 0.00000E+00 0.00000E+00 0.00000E+00
 -1        19 0.00000E+00 0.00000E+00 0.00000E+00
 -1        20 0.00000E+00 0.00000E+00 0.00000E+00
 -1        21 6.72441E-03-2.23188E-03 1.43991E-05
 -1        22 6.72217E-03-2.00361E-16-6.02816E-17
 -1        23 6.72441E-03 2.23188E-03-1.43991E-05
 -1        24 3.36635E-03 4.46322E-03-1.94885E-05
 -1        25 1.65616E-15 4.45955E-03-4.58618E-16
 -1        26-3.36635E-03 4.46322E-03 1.94885E-05
 -1        27-6.72441E-03 2.23188E-03 1.43991E-05
 -1        28-6.72217E-03-2.19876E-16 4.57533E-17
 -1        29-6.72441E-03-2.23188E-03-1.43991E-05
 -1        30-3.36635E-03-4.46322E-03-1.94885E-05
 -1        31 1.63227E-15-4.45955E-03 4.19153E-16
 -1        32 3.36635E-03-4.46322E-03 1.94885E-05
 -1        33 5.36178E-04 3.45930E-04-1.29021E-04
 -1        34 1.17250E-03 7.92486E-04-1.61959E-04
 -1        35 1.84656E-03 1.23220E-03-1.74038E-04
 -1        36 2.47010E-03 1.65098E-03-1.73632E-04
 -1        37 3.07684E-03 2.04885E-03-1.64940E-04
 -1        38 3.65037E-03 2.43438E-03-1.55752E-04
 -1        39 4.19369E-03 2.79466E-03-1.45044E-04
 -1        40 4.69158E-03 3.12723E-03-1.32809E-04
 -1        41 5.14450E-03 3.42835E-03-1.19264E-04
 -1        42 5.54562E-03 3.69612E-03-1.04437E-04
 -1        43 5.89283E-03 3.92716E-03-8.87786E-05
 -1        44 6.18125E-03 4.11973E-03-7.20810E-05
 -1        45 6.40925E-03 4.27160E-03-5.54277E-05
 -1        46 6.57436E-03 4.38131E-03-3.95462E-05
 -1        47 6.67542E-03 4.44730E-03-2.90515E-05
 -1        48 6.67542E-03-4.44730E-03 2.90515E-05
 -1        49 6.57436E-03-4.38131E-03 3.95462E-05
 -1        50 6.40925E-03-4.27160E-03 5.54277E-05
 -1        51 6.18125E-03-4.11973E-03 7.20810E-05
 -1        52 5.89283E-03-3.92716E-03 8.87786E-05
 -1        53 5.54562E-03-3.69612E-03 1.04437E-04
 -1        54 5.14450E-03-3.42835E-03 1.19264E-04
 -1        55 4.69158E-03-3.12723E-03 1.32809E-04
 -1        56 4.19369E-03-2.79466E-03 1.45044E-04
 -1        57 3.65037E-03-2.43438E-03 1.55752E-04
 -1        58 3.07684E-03-2.04885E-03 1.64940E-04
 -1        59 2.47010E-03-1.65098E-03 1.73632E-04
 -1        60 1.84656E-03-1.23220E-03 1.74038E-04
 -1        61 1.17250E-03-7.92486E-04 1.61959E-04
 -1        62 5.36178E-04-3.45930E-04 1.29021E-04
 -1        63-5.36178E-04 3.45930E-04 1.29021E-04
 -1        64-1.17250E-03 7.92486E-04 1.61959E-04
 -1        65-1.84656E-03 1.23220E-03 1.74038E-04
 -1        66-2.47010E-03 1.65098E-03 1.73632E-04
 -1        67-3.07684E-03 2.04885E-03 1.64940E-04
 -1        68-3.65037E-03 2.43438E-03 1.55752E-04
 -1        69-4.19369E-03 2.79466E-03 1.45044E-04
 -1        70-4.69158E-03 3.12723E-03 1.32809E-04
 -1        71-5.14450E-03 3.42835E-03 1.19264E-04
 -1        72-5.54562E-03 3.69612E-03 1.04437E-04
 -1        73-5.89283E-03 3.92716E-03 8.87786E-05
 -1        74-6.18125E-03 4.11973E-03 7.20810E-05
 -1        75-6.40925E-03 4.27160E-03 5.54277E-05
 -1        76-6.57436E-03 4.38131E-03 3.95462E-05
 -1        77-6.67542E-03 4.44730E-03 2.90515E-05
 -1        78-5.36178E-04-3.45930E-04-1.29021E-04
 -1        79-1.17250E-03-7.92486E-04-1.61959E-04
 -1        80-1.84656E-03-1.23220E-03-1.74038E-04
 -1        81-2.47010E-03-1.65098E-03-1.73632E-04
 -1        82-3.07684E-03-2.04885E-03-1.64940E-04
 -1        83-3.65037E-03-2.43438E-03-1.55752E-04
 -1        84-4.19369E-03-2.79466E-03-1.45044E-04
 -1        85-4.69158E-03-3.12723E-03-1.32809E-04
 -1        86-5.14450E-03-3.42835E-03-1.19264E-04
 -1        87-5.54562E-03-3.69612E-03-1.04437E-04
 -1        88-5.89283E-03-3.92716E-03-8.87786E-05
 -1        89-6.18125E-03-4.11973E-03-7.20810E-05
 -1        90-6.40925E-03-4.27160E-03-5.54277E-05
 -1        91-6.57436E-03-4.38131E-03-3.95462E-05
 -1        92-6.67542E-03-4.44730E-03-2.90515E-05
 -1        93 0.00000E+00 0.00000E+00 0.00000E+00
 -1        94 0.00000E+00 0.00000E+00 0.00000E+00
 -1        95 0.00000E+00 0.00000E+00 0.00000E+00
 -1        96 0.00000E+00 0.00000E+00 0.00000E+00
 -1        97 0.00000E+00 0.00000E+00 0.00000E+00
 -1        98 3.36512E-03-2.04697E-16-3.90313E-17
 -1        99 1.62560E-15-2.22616E-03 2.04697E-16
 -1       100 1.64303E-15-2.12504E-16-1.45283E-17
 -1       101 1.65235E-15 2.22616E-03-2.36139E-16
 -1       102-3.36512E-03-2.36790E-16 1.38778E-17
 -1       103 5.32016E-04 3.23905E-18 2.30393E-18
 -1       104 1.17913E-03-3.97988E-04-3.68119E-06
 -1       105 1.19265E-03 7.48099E-18 4.06576E-18
 -1       106 1.17913E-03 3.97988E-04 3.68119E-06
 -1       107 1.83521E-03 1.14925E-17 3.03577E-18
 -1       108 2.47420E-03-8.24750E-04 3.17692E-05
 -1       109 2.47549E-03 1.95156E-17 2.16840E-18
 -1       110 2.47420E-03 8.24750E-04-3.17692E-05
 -1       111 3.07569E-03 2.21177E-17-1.30104E-18
 -1       112 3.65223E-03-1.21700E-03 2.27303E-05
 -1       113 3.65349E-03 2.55872E-17-1.17094E-17
 -1       114 3.65223E-03 1.21700E-03-2.27303E-05
 -1       115 4.19244E-03 2.38524E-17-1.69136E-17
 -1       116 4.69289E-03-1.56311E-03 2.07318E-05
 -1       117 4.69236E-03 9.54098E-18-2.68882E-17
 -1       118 4.69289E-03 1.56311E-03-2.07318E-05
 -1       119 5.14394E-03-3.90313E-18-3.94650E-17
 -1       120 5.54669E-03-1.84754E-03 1.60195E-05
 -1       121 5.54589E-03-3.64292E-17-4.90059E-17
 -1       122 5.54669E-03 1.84754E-03-1.60195E-05
 -1       123 5.89235E-03-6.01732E-17-5.20417E-17
 -1       124 6.18228E-03-2.05922E-03 1.10608E-05
 -1       125 6.18114E-03-9.03140E-17-5.46438E-17
 -1       126 6.18228E-03 2.05922E-03-1.10608E-05
 -1       127 6.40853E-03-1.17202E-16-5.55112E-17
 -1       128 6.57519E-03-2.19022E-03 7.63274E-06
 -1       129 6.57402E-03-1.54390E-16-6.41848E-17
 -1       130 6.57519E-03 2.19022E-03-7.63274E-06
 -1       131 6.67304E-03-1.71954E-16-6.93889E-17
 -1       132-1.07715E-16 4.16748E-04 9.81745E-17
 -1       133 5.86976E-04 7.90684E-04-2.28863E-04
 -1       134-2.70332E-16 7.85451E-04 1.70220E-16
 -1       135-5.86976E-04 7.90684E-04 2.28863E-04
 -1       136-4.88406E-16 1.22333E-03 1.89302E-16
 -1       137 1.23392E-03 1.64770E-03-2.01869E-04
 -1       138-6.96220E-16 1.64473E-03 1.75641E-16
 -1       139-1.23392E-03 1.64770E-03 2.01869E-04
 -1       140-8.73813E-16 2.04796E-03 1.29237E-16
 -1       141 1.82575E-03 2.43109E-03-1.88085E-04
 -1       142-9.86461E-16 2.42894E-03 5.94143E-17
 -1       143-1.82575E-03 2.43109E-03 1.88085E-04
 -1       144-1.00852E-15 2.78905E-03-1.82146E-17
 -1       145 2.34585E-03 3.12358E-03-1.58970E-04
 -1       146-9.55345E-16 3.12097E-03-9.28077E-17
 -1       147-2.34585E-03 3.12358E-03 1.58970E-04
 -1       148-8.27680E-16 3.42198E-03-1.66967E-16
 -1       149 2.77307E-03 3.69183E-03-1.25288E-04
 -1       150-6.48177E-16 3.68896E-03-2.35922E-16
 -1       151-2.77307E-03 3.69183E-03 1.25288E-04
 -1       152-3.68129E-16 3.91980E-03-3.03143E-16
 -1       153 3.09094E-03 4.11503E-03-8.65550E-05
 -1       154-4.36527E-17 4.11184E-03-3.60389E-16
 -1       155-3.09094E-03 4.11503E-03 8.65550E-05
 -1       156 3.47514E-16 4.26344E-03-4.10262E-16
 -1       157 3.28688E-03 4.37595E-03-4.55517E-05
 -1       158 7.72135E-16 4.37186E-03-4.41487E-16
 -1       159-3.28688E-03 4.37595E-03 4.55517E-05
 -1       160 1.19983E-15 4.44517E-03-4.58184E-16
 -1       161-5.32016E-04 3.36103E-18-3.90313E-18
 -1       162-1.17913E-03 3.97988E-04-3.68119E-06
 -1       163-1.19265E-03 7.48099E-18-7.15573E-18
 -1       164-1.17913E-03-3.97988E-04 3.68119E-06
 -1       165-1.83521E-03 1.30104E-17-6.93889E-18
 -1       166-2.47420E-03 8.24750E-04 3.17692E-05
 -1       167-2.47549E-03 1.95156E-17-7.37257E-18
 -1       168-2.47420E-03-8.24750E-04-3.17692E-05
 -1       169-3.07569E-03 1.99493E-17-6.93889E-18
 -1       170-3.65223E-03 1.21700E-03 2.27303E-05
 -1       171-3.65349E-03 2.42861E-17-6.50521E-18
 -1       172-3.65223E-03-1.21700E-03-2.27303E-05
 -1       173-4.19244E-03 2.68882E-17 8.67362E-18
 -1       174-4.69289E-03 1.56311E-03 2.07318E-05
 -1       175-4.69236E-03 3.46945E-18 1.30104E-17
 -1       176-4.69289E-03-1.56311E-03-2.07318E-05
 -1       177-5.14394E-03-1.17094E-17 2.40693E-17
 -1       178-5.54669E-03 1.84754E-03 1.60195E-05
 -1       179-5.54589E-03-3.88144E-17 2.84061E-17
 -1       180-5.54669E-03-1.84754E-03-1.60195E-05
 -1       181-5.89235E-03-5.15538E-17 3.10082E-17
 -1       182-6.18228E-03 2.05922E-03 1.10608E-05
 -1       183-6.18114E-03-9.05851E-17 3.01408E-17
 -1       184-6.18228E-03-2.05922E-03-1.10608E-05
 -1       185-6.40853E-03-1.15034E-16 3.16587E-17
 -1       186-6.57519E-03 2.19022E-03 7.63274E-06
 -1       187-6.57402E-03-1.61329E-16 3.14419E-17
 -1       188-6.57519E-03-2.19022E-03-7.63274E-06
 -1       189-6.67304E-03-1.77375E-16 3.79471E-17
 -1       190-1.08610E-16-4.16748E-04-1.00289E-16
 -1       191-5.86976E-04-7.90684E-04-2.28863E-04
 -1       192-2.70536E-16-7.85451E-04-1.74123E-16
 -1       193 5.86976E-04-7.90684E-04 2.28863E-04
 -1       194-4.91401E-16-1.22333E-03-1.96241E-16
 -1       195-1.23392E-03-1.64770E-03-2.01869E-04
 -1       196-7.00706E-16-1.64473E-03-1.81929E-16
 -1       197 1.23392E-03-1.64770E-03 2.01869E-04
 -1       198-8.76212E-16-2.04796E-03-1.35308E-16
 -1       199-1.82575E-03-2.43109E-03-1.88085E-04
 -1       200-9.84069E-16-2.42894E-03-6.67869E-17
 -1       201 1.82575E-03-2.43109E-03 1.88085E-04
 -1       202-1.01016E-15-2.78905E-03 7.80626E-18
 -1       203-2.34585E-03-3.12358E-03-1.58970E-04
 -1       204-9.68084E-16-3.12097E-03 8.23994E-17
 -1       205 2.34585E-03-3.12358E-03 1.58970E-04
 -1       206-8.30743E-16-3.42198E-03 1.52222E-16
 -1       207-2.77307E-03-3.69183E-03-1.25288E-04
 -1       208-6.38148E-16-3.68896E-03 2.20310E-16
 -1       209 2.77307E-03-3.69183E-03 1.25288E-04
 -1       210-3.69374E-16-3.91980E-03 2.80592E-16
 -1       211-3.09094E-03-4.11503E-03-8.65550E-05
 -1       212-6.12574E-17-4.11184E-03 3.36970E-16
 -1       213 3.09094E-03-4.11503E-03 8.65550E-05
 -1       214 3.36428E-16-4.26344E-03 3.83374E-16
 -1       215-3.28688E-03-4.37595E-03-4.55517E-05
 -1       216 7.58413E-16-4.37186E-03 4.11129E-16
 -1       217 3.28688E-03-4.37595E-03 4.55517E-05
 -1       218 1.20307E-15-4.44517E-03 4.15033E-16
 -1       219-8.82397E-17 2.54788E-18-7.58942E-19
 -1       220 5.93252E-04 6.72205E-18 9.75782E-19
 -1       221-2.66754E-16-3.97080E-04-8.10983E-17
 -1       222-2.69957E-16 6.93889E-18-1.95156E-18
 -1       223-2.66910E-16 3.97080E-04 7.80626E-17
 -1       224-5.93252E-04 7.48099E-18-4.33681E-18
 -1       225-4.84408E-16 1.27936E-17-2.60209E-18
 -1       226 1.23828E-03 2.05998E-17-1.95156E-18
 -1       227-7.03918E-16-8.21031E-04-8.84709E-17
 -1       228-7.01560E-16 1.69136E-17-1.95156E-18
 -1       229-7.01181E-16 8.21031E-04 8.32667E-17
 -1       230-1.23828E-03 1.56125E-17-6.50521E-18
 -1       231-8.82866E-16 2.55872E-17-3.03577E-18
 -1       232 1.82757E-03 2.08167E-17-7.80626E-18
 -1       233-9.88108E-16-1.21376E-03-3.64292E-17
 -1       234-9.94722E-16 2.12504E-17-5.20417E-18
 -1       235-9.94634E-16 1.21376E-03 2.60209E-17
 -1       236-1.82757E-03 3.16587E-17-2.16840E-18
 -1       237-1.02812E-15 2.29851E-17-5.63785E-18
 -1       238 2.34722E-03 1.34441E-17-1.51788E-17
 -1       239-9.79279E-16-1.55920E-03 3.94650E-17
 -1       240-9.77679E-16 1.12757E-17-6.07153E-18
 -1       241-9.67596E-16 1.55920E-03-4.94396E-17
 -1       242-2.34722E-03 4.33681E-18 3.03577E-18
 -1       243-8.45081E-16-6.50521E-18-6.50521E-18
 -1       244 2.77417E-03-3.68629E-17-2.77556E-17
 -1       245-6.45493E-16-1.84309E-03 1.04083E-16
 -1       246-6.45127E-16-2.97071E-17-8.67362E-18
 -1       247-6.54180E-16 1.84309E-03-1.21431E-16
 -1       248-2.77417E-03-2.66714E-17 1.12757E-17
 -1       249-3.85949E-16-6.14201E-17-9.97466E-18
 -1       250 3.09203E-03-8.84709E-17-3.51282E-17
 -1       251-5.99293E-17-2.05420E-03 1.60462E-16
 -1       252-4.56720E-17-8.32125E-17-1.30104E-17
 -1       253-4.88027E-17 2.05420E-03-1.85182E-16
 -1       254-3.09203E-03-9.09104E-17 8.23994E-18
 -1       255 3.33528E-16-1.28044E-16-1.34441E-17
 -1       256 3.28777E-03-1.45283E-16-3.98986E-17
 -1       257 7.67629E-16-2.18497E-03 1.96891E-16
 -1       258 7.79860E-16-1.49837E-16-1.38778E-17
 -1       259 7.71503E-16 2.18497E-03-2.24213E-16
 -1       260-3.28777E-03-1.61763E-16 7.15573E-18
 -1       261 1.19043E-15-1.78243E-16-1.06252E-17
 -3
    1PSTEP                         8           1           1          
    1PGM                1.000000E+00                                  
    1PGK                2.985047E+05                                  
    1PHID                         -1                                  
    1PSUBC                         0                                  
    1PMODE                         4                                  
  100CL  104 8.69552E+01         261                     2    4MODAL      1
 -4  STRESS      6    1
 -5  SXX         1    4    1    1
 -5  SYY         1    4    2    2
 -5  SZZ         1    4    3    3
 -5  SXY         1    4    1    2
 -5  SYZ         1    4    2    3
 -5  SZX         1    4    3    1
 -1         1 3.46371E+07 2.70306E+07 1.01717E+08-1.82366E+06-5.13874E+07 7.32036E+07
 -1         2-3.46371E+07-2.70306E+07-1.01717E+08-1.82366E+06 5.13874E+07 7.32036E+07
 -1         3 3.46371E+07 2.70306E+07 1.01717E+08-1.82366E+06 5.13874E+07-7.32036E+07
 -1         4-3.46371E+07-2.70306E+07-1.01717E+08-1.82366E+06-5.13874E+07-7.32036E+07
 -1         5-7.26194E+05 7.69546E+05 6.87054E+05 1.48231E+04 2.98891E+05-2.23629E+05
 -1         6 7.26194E+05-7.69546E+05-6.87054E+05 1.48231E+04-2.98891E+05-2.23629E+05
 -1         7-7.26194E+05 7.69546E+05 6.87054E+05 1.48231E+04-2.98891E+05 2.23629E+05
 -1         8 7.26194E+05-7.69546E+05-6.87054E+05 1.48231E+04 2.98891E+05 2.23629E+05
 -1         9 1.12160E+07 8.94630E+06 4.17307E+07-1.31249E+06-2.57401E+07 7.16152E+07
 -1        10-7.54371E-08 1.70432E-07 1.17905E-06-8.01326E+05 3.96045E-07 7.00268E+07
 -1        11-1.12160E+07-8.94630E+06-4.17307E+07-1.31249E+06 2.57401E+07 7.16152E+07
 -1        12-1.92881E+07-1.01481E+07-6.07909E+07 2.17897E+06 6.31817E+07 3.66209E+07
 -1        13 1.68849E-05 1.72122E-05 5.65220E-05 6.18161E+06 7.49759E+07-1.16965E-05
 -1        14 1.92881E+07 1.01481E+07 6.07909E+07 2.17897E+06 6.31817E+07-3.66209E+07
 -1        15 1.12160E+07 8.94630E+06 4.17307E+07-1.31249E+06 2.57401E+07-7.16152E+07
 -1        16-8.53091E-07-8.75443E-07-2.26684E-06-8.01326E+05 4.38653E-07-7.00268E+07
 -1        17-1.12160E+07-8.94630E+06-4.17307E+07-1.31249E+06-2.57401E+07-7.16152E+07
 -1        18-1.92881E+07-1.01481E+07-6.07909E+07 2.17897E+06-6.31817E+07-3.66209E+07
 -1        19-1.69014E-05-1.74870E-05-5.73695E-05 6.18161E+06-7.49759E+07-1.18150E-05
 -1        20 1.92881E+07 1.01481E+07 6.07909E+07 2.17897E+06-6.31817E+07 3.66209E+07
 -1        21-1.01205E+06 6.40166E+05 1.08769E+06-3.57060E+05 1.63440E+05-4.63534E+05
 -1        22-2.76207E-05-1.39839E-05-5.57397E-06-7.28944E+05-1.47324E-07-7.03438E+05
 -1        23 1.01205E+06-6.40166E+05-1.08769E+06-3.57060E+05-1.63440E+05-4.63534E+05
 -1        24 5.75596E+05-7.10846E+05 1.05822E+06-8.13501E+05 1.08342E+06-2.99978E+05
 -1        25 3.01676E-06 1.07273E-05 6.81519E-06-1.64182E+06 2.46572E+06 2.74010E-06
 -1        26-5.75596E+05 7.10846E+05-1.05822E+06-8.13501E+05 1.08342E+06 2.99978E+05
 -1        27-1.01205E+06 6.40166E+05 1.08769E+06-3.57060E+05-1.63440E+05 4.63534E+05
 -1        28 3.96767E-06 3.24344E-05 1.40478E-05-7.28944E+05-2.96370E-06 7.03438E+05
 -1        29 1.01205E+06-6.40166E+05-1.08769E+06-3.57060E+05 1.63440E+05 4.63534E+05
 -1        30 5.75596E+05-7.10846E+05 1.05822E+06-8.13501E+05-1.08342E+06 2.99978E+05
 -1        31-1.89524E-05 2.24088E-06-1.57510E-06-1.64182E+06-2.46572E+06-2.74184E-06
 -1        32-5.75596E+05 7.10846E+05-1.05822E+06-8.13501E+05-1.08342E+06-2.99978E+05
 -1        33-1.23194E+07-3.92073E+06-4.77338E+07-1.14061E+06 4.14726E+07 4.09844E+07
 -1        34 6.37106E+06 9.00185E+06-2.63894E+05 1.11055E+05 2.60753E+07 1.22140E+07
 -1        35 2.71893E+06-8.25225E+05-1.43282E+06 2.76553E+05 2.59750E+07 1.78951E+07
 -1        36-1.57435E+05-7.86336E+05 3.45748E+06-4.72673E+04 3.09168E+07 2.24092E+07
 -1        37-8.00813E+05-2.18265E+05 4.14088E+06-4.13842E+04 2.85608E+07 2.09995E+07
 -1        38 9.29354E+05 9.16245E+04 5.29388E+06 7.99907E+04 2.62308E+07 1.80029E+07
 -1        39 5.81489E+05-3.45655E+05 6.03260E+06 1.43626E+05 2.42445E+07 1.72231E+07
 -1        40 3.81251E+05-2.99203E+05 6.73782E+06 4.99415E+04 2.25966E+07 1.60526E+07
 -1        41 3.60053E+05-3.43192E+05 7.36615E+06 8.38917E+04 2.01437E+07 1.43904E+07
 -1        42 5.74913E+05-3.42083E+05 7.99197E+06 9.28623E+04 1.76978E+07 1.25424E+07
 -1        43 5.40938E+05-3.87863E+05 8.42755E+06 1.42128E+05 1.49321E+07 1.06172E+07
 -1        44 6.09732E+05-3.41817E+05 8.90029E+06 2.04161E+05 1.21856E+07 8.63160E+06
 -1        45 5.55497E+05-5.44736E+05 8.50092E+06-3.09187E+03 9.36327E+06 6.63739E+06
 -1        46 5.67591E+05-2.95845E+05 7.98393E+06 1.25409E+05 6.50052E+06 4.32258E+06
 -1        47 6.84262E+05-2.86213E+05 3.59803E+06 2.50618E+05 3.05578E+06 1.91819E+06
 -1        48-6.84262E+05 2.86213E+05-3.59803E+06 2.50618E+05-3.05578E+06 1.91819E+06
 -1        49-5.67591E+05 2.95845E+05-7.98393E+06 1.25409E+05-6.50052E+06 4.32258E+06
 -1        50-5.55497E+05 5.44736E+05-8.50092E+06-3.09187E+03-9.36327E+06 6.63739E+06
 -1        51-6.09732E+05 3.41817E+05-8.90029E+06 2.04161E+05-1.21856E+07 8.63160E+06
 -1        52-5.40938E+05 3.87863E+05-8.42755E+06 1.42128E+05-1.49321E+07 1.06172E+07
 -1        53-5.74913E+05 3.42083E+05-7.99197E+06 9.28623E+04-1.76978E+07 1.25424E+07
 -1        54-3.60053E+05 3.43192E+05-7.36615E+06 8.38917E+04-2.01437E+07 1.43904E+07
 -1        55-3.81251E+05 2.99203E+05-6.73782E+06 4.99415E+04-2.25966E+07 1.60526E+07
 -1        56-5.81489E+05 3.45655E+05-6.03260E+06 1.43626E+05-2.42445E+07 1.72231E+07
 -1        57-9.29354E+05-9.16245E+04-5.29388E+06 7.99907E+04-2.62308E+07 1.80029E+07
 -1        58 8.00813E+05 2.18265E+05-4.14088E+06-4.13842E+04-2.85608E+07 2.09995E+07
 -1        59 1.57435E+05 7.86336E+05-3.45748E+06-4.72673E+04-3.09168E+07 2.24092E+07
 -1        60-2.71893E+06 8.25225E+05 1.43282E+06 2.76553E+05-2.59750E+07 1.78951E+07
 -1        61-6.37106E+06-9.00185E+06 2.63894E+05 1.11055E+05-2.60753E+07 1.22140E+07
 -1        62 1.23194E+07 3.92073E+06 4.77338E+07-1.14061E+06-4.14726E+07 4.09844E+07
 -1        63 1.23194E+07 3.92073E+06 4.77338E+07-1.14061E+06 4.14726E+07-4.09844E+07
 -1        64-6.37106E+06-9.00185E+06 2.63894E+05 1.11055E+05 2.60753E+07-1.22140E+07
 -1        65-2.71893E+06 8.25225E+05 1.43282E+06 2.76553E+05 2.59750E+07-1.78951E+07
 -1        66 1.57435E+05 7.86336E+05-3.45748E+06-4.72673E+04 3.09168E+07-2.24092E+07
 -1        67 8.00813E+05 2.18265E+05-4.14088E+06-4.13842E+04 2.85608E+07-2.09995E+07
 -1        68-9.29354E+05-9.16245E+04-5.29388E+06 7.99907E+04 2.62308E+07-1.80029E+07
 -1        69-5.81489E+05 3.45655E+05-6.03260E+06 1.43626E+05 2.42445E+07-1.72231E+07
 -1        70-3.81251E+05 2.99203E+05-6.73782E+06 4.99415E+04 2.25966E+07-1.60526E+07
 -1        71-3.60053E+05 3.43192E+05-7.36615E+06 8.38917E+04 2.01437E+07-1.43904E+07
 -1        72-5.74913E+05 3.42083E+05-7.99197E+06 9.28623E+04 1.76978E+07-1.25424E+07
 -1        73-5.40938E+05 3.87863E+05-8.42755E+06 1.42128E+05 1.49321E+07-1.06172E+07
 -1        74-6.09732E+05 3.41817E+05-8.90029E+06 2.04161E+05 1.21856E+07-8.63160E+06
 -1        75-5.55497E+05 5.44736E+05-8.50092E+06-3.09187E+03 9.36327E+06-6.63739E+06
 -1        76-5.67591E+05 2.95845E+05-7.98393E+06 1.25409E+05 6.50052E+06-4.32258E+06
 -1        77-6.84262E+05 2.86213E+05-3.59803E+06 2.50618E+05 3.05578E+06-1.91819E+06
 -1        78-1.23194E+07-3.92073E+06-4.77338E+07-1.14061E+06-4.14726E+07-4.09844E+07
 -1        79 6.37106E+06 9.00185E+06-2.63894E+05 1.11055E+05-2.60753E+07-1.22140E+07
 -1        80 2.71893E+06-8.25225E+05-1.43282E+06 2.76553E+05-2.59750E+07-1.78951E+07
 -1        81-1.57435E+05-7.86336E+05 3.45748E+06-4.72673E+04-3.09168E+07-2.24092E+07
 -1        82-8.00813E+05-2.18265E+05 4.14088E+06-4.13842E+04-2.85608E+07-2.09995E+07
 -1        83 9.29354E+05 9.16245E+04 5.29388E+06 7.99907E+04-2.62308E+07-1.80029E+07
 -1        84 5.81489E+05-3.45655E+05 6.03260E+06 1.43626E+05-2.42445E+07-1.72231E+07
 -1        85 3.81251E+05-2.99203E+05 6.73782E+06 4.99415E+04-2.25966E+07-1.60526E+07
 -1        86 3.60053E+05-3.43192E+05 7.36615E+06 8.38917E+04-2.01437E+07-1.43904E+07
 -1        87 5.74913E+05-3.42083E+05 7.99197E+06 9.28623E+04-1.76978E+07-1.25424E+07
 -1        88 5.40938E+05-3.87863E+05 8.42755E+06 1.42128E+05-1.49321E+07-1.06172E+07
 -1        89 6.09732E+05-3.41817E+05 8.90029E+06 2.04161E+05-1.21856E+07-8.63160E+06
 -1        90 5.55497E+05-5.44736E+05 8.50092E+06-3.09187E+03-9.36327E+06-6.63739E+06
 -1        91 5.67591E+05-2.95845E+05 7.98393E+06 1.25409E+05-6.50052E+06-4.32258E+06
 -1        92 6.84262E+05-2.86213E+05 3.59803E+06 2.50618E+05-3.05578E+06-1.91819E+06
 -1        93 3.07336E-08 3.11993E-08 5.05708E-07 3.20133E+06 3.16300E-07 3.49301E+07
 -1        94-4.29293E-06-6.84964E-06-2.64915E-05 6.69280E+06-3.76046E+07-8.62067E-06
 -1        95 1.90974E-07-4.05998E-09-1.05414E-07 7.20398E+06 2.39466E-07-5.44591E-06
 -1        96 4.47559E-06 6.70808E-06 2.59625E-05 6.69280E+06 3.76046E+07-8.58097E-06
 -1        97-3.04077E-07-3.87896E-07-1.15484E-06 3.20133E+06 3.40515E-07-3.49301E+07
 -1        98-4.66799E-06-8.66875E-06-2.13290E-06-3.46678E+06-6.34434E-07-5.47369E+05
 -1        99 1.86003E-06-1.78401E-06 4.28641E-07-3.92322E+06-1.16770E+06 7.89325E-07
 -1       100 1.14973E-05-1.12812E-05-3.05926E-06-6.20462E+06-2.06906E-06 4.72294E-06
 -1       101 1.66941E-06-3.01312E-06-8.67876E-07-3.92322E+06 1.16770E+06 3.93277E-06
 -1       102 4.33874E-06 6.61274E-06 3.31062E-06-3.46678E+06-2.99013E-06 5.47369E+05
 -1       103 9.72068E-07 4.06988E-07 1.34576E-06-8.94789E+05 1.85100E-07 9.71108E+07
 -1       104 8.20063E+05-3.68706E+06-3.48967E+05 2.29854E+04-9.98792E+06 6.62504E+07
 -1       105 2.21469E-06 4.93368E-07 6.79400E-07-6.50845E+04-7.49715E-08 1.20287E+08
 -1       106-8.20063E+05 3.68706E+06 3.48967E+05 2.29854E+04 9.98792E+06 6.62504E+07
 -1       107-8.33767E-07 8.92207E-07-9.02452E-07 8.21425E+05 2.21655E-07 1.07268E+08
 -1       108-1.83133E+06-2.39520E+04-1.39387E+06 7.26228E+04-1.34557E+07 5.91992E+07
 -1       109-3.97611E-06 1.49474E-06-8.64791E-07 1.92513E+05-3.51341E-07 9.59892E+07
 -1       110 1.83133E+06 2.39520E+04 1.39387E+06 7.26228E+04 1.34557E+07 5.91992E+07
 -1       111 1.06089E-06-1.02445E-08-1.97862E-06-2.98036E+05-1.22003E-07 9.19414E+07
 -1       112-4.70365E+05 1.13449E+05-2.27276E+06-3.81463E+02-1.11383E+07 5.37111E+07
 -1       113 5.19369E-06-2.89420E-06-2.52126E-06-8.07536E+04 1.20595E-06 8.94193E+07
 -1       114 4.70365E+05-1.13449E+05 2.27276E+06-3.81463E+02 1.11383E+07 5.37111E+07
 -1       115-2.61731E-07-9.63977E-07-3.58431E-06-1.96721E+04 3.07336E-07 8.22163E+07
 -1       116-8.08199E+05 1.83675E+05-2.88081E+06-3.13749E+04-9.65379E+06 4.56869E+07
 -1       117-4.91837E-06 6.13567E-07-6.79516E-06-1.12691E+05 8.06293E-07 7.53212E+07
 -1       118 8.08199E+05-1.83675E+05 2.88081E+06-3.13749E+04 9.65379E+06 4.56869E+07
 -1       119-4.21499E-06-3.04112E-06-6.69027E-06-1.34267E+05 1.51806E-07 6.72502E+07
 -1       120-7.72223E+05 2.92043E+05-3.38083E+06-1.53543E+04-7.54709E+06 3.59589E+07
 -1       121-3.50754E-06-5.61960E-06-5.43159E-06-1.23571E+05-1.97673E-07 5.93753E+07
 -1       122 7.72223E+05-2.92043E+05 3.38083E+06-1.53543E+04 7.54709E+06 3.59589E+07
 -1       123-6.01012E-06-5.36031E-06-5.37816E-06-1.21266E+05 1.83936E-07 5.01266E+07
 -1       124-9.08406E+05 2.99930E+05-3.75042E+06 5.71983E+04-5.19686E+06 2.47663E+07
 -1       125-1.00906E-05-6.42418E-06-5.04672E-06-8.97645E+04-2.57511E-07 4.09010E+07
 -1       126 9.08406E+05-2.99930E+05 3.75042E+06 5.71983E+04 5.19686E+06 2.47663E+07
 -1       127 3.80701E-06 4.05079E-06 6.77770E-07-1.65548E+05-4.29223E-07 3.05995E+07
 -1       128-8.37648E+05 2.55164E+05-3.24545E+06 1.05566E+05-2.80706E+06 1.21076E+07
 -1       129 1.70947E-05 1.58924E-05 4.85906E-06 8.57225E+04 1.40339E-06 1.98926E+07
 -1       130 8.37648E+05-2.55164E+05 3.24545E+06 1.05566E+05 2.80706E+06 1.21076E+07
 -1       131-6.35721E-06 6.74685E-07-8.08272E-07-1.46610E+05 2.15988E-06 9.33433E+06
 -1       132 5.96652E-06 7.34674E-06 3.93093E-05 5.13971E+06 1.04748E+08-4.51226E-06
 -1       133 2.53833E+06 4.72363E+06-4.28599E+06 3.27609E+05 8.34608E+07-1.87167E+06
 -1       134-3.33000E-06-4.48083E-07 1.87645E-05 5.44163E+05 1.40846E+08 2.73809E-07
 -1       135-2.53833E+06-4.72363E+06 4.28599E+06 3.27609E+05 8.34608E+07 1.87167E+06
 -1       136 4.07454E-09 9.26899E-07 1.95345E-06-1.51486E+06 1.39130E+08-5.79283E-07
 -1       137-4.43995E+04-7.31571E+05 2.95610E+06 1.99273E+05 8.10477E+07 5.00693E+06
 -1       138 4.01039E-06 2.15461E-06-1.15788E-05 4.45813E+05 1.31179E+08 1.44821E-07
 -1       139 4.43995E+04 7.31571E+05-2.95610E+06 1.99273E+05 8.10477E+07-5.00693E+06
 -1       140 4.32489E-06 6.08212E-07-2.31167E-05 1.48947E+05 1.25665E+08-4.59142E-07
 -1       141 7.28563E+05 1.46405E+05 3.54332E+06-2.96745E+05 7.33210E+07 3.08265E+06
 -1       142 4.26939E-06-8.55536E-07-3.29253E-05-6.73481E+05 1.20411E+08-3.92552E-07
 -1       143-7.28563E+05-1.46405E+05-3.54332E+06-2.96745E+05 7.33210E+07-3.08265E+06
 -1       144 7.85454E-07-1.31977E-06-3.23718E-05-6.25697E+05 1.11512E+08-9.97446E-07
 -1       145 3.92902E+05-3.25909E+05 4.67656E+06-2.12982E+05 6.24387E+07 3.03744E+06
 -1       146-2.77016E-06-2.34797E-06-3.26918E-05-4.75905E+05 1.02281E+08 4.09316E-07
 -1       147-3.92902E+05 3.25909E+05-4.67656E+06-2.12982E+05 6.24387E+07-3.03744E+06
 -1       148 5.85715E-07-6.24155E-06-3.08743E-05-5.63414E+05 9.14166E+07-5.47618E-07
 -1       149 5.70272E+05-2.94896E+05 5.51541E+06-2.98722E+05 4.91227E+07 2.33993E+06
 -1       150 5.92525E-06-8.87194E-06-2.96895E-05-6.90307E+05 8.05477E+07-1.15484E-07
 -1       151-5.70272E+05 2.94896E+05-5.51541E+06-2.98722E+05 4.91227E+07-2.33993E+06
 -1       152 6.37979E-06-2.78396E-06-2.53499E-05-6.72684E+05 6.80975E+07 6.39353E-07
 -1       153 6.10963E+05-3.17907E+05 6.15301E+06-2.04688E+05 3.39329E+07 1.58811E+06
 -1       154 4.96241E-06 1.34357E-06-2.14248E-05-6.13536E+05 5.56803E+07 4.95929E-07
 -1       155-6.10963E+05 3.17907E+05-6.15301E+06-2.04688E+05 3.39329E+07-1.58811E+06
 -1       156 9.92749E-06 5.23619E-06-1.20415E-05-8.36731E+05 4.21315E+07 1.07219E-06
 -1       157 5.84020E+05-2.83241E+05 5.62509E+06-1.64613E+05 1.80464E+07 8.12552E+05
 -1       158 1.33477E-05 8.84180E-06-3.21656E-06-4.54635E+05 2.95923E+07-3.13274E-06
 -1       159-5.84020E+05 2.83241E+05-5.62509E+06-1.64613E+05 1.80464E+07-8.12552E+05
 -1       160 8.39197E-06 1.00138E-05 1.39792E-06-7.23270E+05 1.65570E+07-1.41084E-06
 -1       161-7.81612E-07-8.48901E-07-1.97999E-06-8.94789E+05 1.77417E-07-9.71108E+07
 -1       162 8.20063E+05-3.68706E+06-3.48967E+05 2.29854E+04 9.98792E+06-6.62504E+07
 -1       163-1.89012E-06-1.48616E-06-1.71037E-06-6.50845E+04 2.00234E-08-1.20287E+08
 -1       164-8.20063E+05 3.68706E+06 3.48967E+05 2.29854E+04-9.98792E+06-6.62504E+07
 -1       165 1.93249E-08 1.51293E-06 1.11759E-08 8.21425E+05 6.95698E-07-1.07268E+08
 -1       166-1.83133E+06-2.39520E+04-1.39387E+06 7.26228E+04 1.34557E+07-5.91992E+07
 -1       167 1.64943E-06 4.03293E-06 1.89210E-06 1.92513E+05 6.71949E-07-9.59892E+07
 -1       168 1.83133E+06 2.39520E+04 1.39387E+06 7.26228E+04-1.34557E+07-5.91992E+07
 -1       169-1.98092E-06-5.25202E-06-1.06602E-06-2.98036E+05-1.38301E-07-9.19414E+07
 -1       170-4.70365E+05 1.13449E+05-2.27276E+06-3.81463E+02 1.11383E+07-5.37111E+07
 -1       171-3.06859E-06-1.06091E-05 2.90165E-07-8.07536E+04 2.75904E-08-8.94193E+07
 -1       172 4.70365E+05-1.13449E+05 2.27276E+06-3.81463E+02-1.11383E+07-5.37111E+07
 -1       173 3.41336E-06-1.32160E-07 4.11004E-06-1.96721E+04-1.77277E-06-8.22163E+07
 -1       174-8.08199E+05 1.83675E+05-2.88081E+06-3.13749E+04 9.65379E+06-4.56869E+07
 -1       175 4.73476E-06 6.18050E-06 5.83311E-06-1.12691E+05-1.68534E-06-7.53212E+07
 -1       176 8.08199E+05-1.83675E+05 2.88081E+06-3.13749E+04-9.65379E+06-4.56869E+07
 -1       177 6.86810E-06-1.09070E-06 5.46512E-06-1.34267E+05-6.21192E-07-6.72502E+07
 -1       178-7.72223E+05 2.92043E+05-3.38083E+06-1.53543E+04 7.54709E+06-3.59589E+07
 -1       179 1.20793E-05-6.38903E-06 3.29188E-06-1.23571E+05 5.91972E-07-5.93753E+07
 -1       180 7.72223E+05-2.92043E+05 3.38083E+06-1.53543E+04-7.54709E+06-3.59589E+07
 -1       181 5.85540E-06 1.15612E-06 2.91097E-06-1.21266E+05-3.00119E-07-5.01266E+07
 -1       182-9.08406E+05 2.99930E+05-3.75042E+06 5.71983E+04 5.19686E+06-2.47663E+07
 -1       183-1.27568E-06 6.76909E-06 1.40216E-06-8.97645E+04-9.06468E-07-4.09010E+07
 -1       184 9.08406E+05-2.99930E+05 3.75042E+06 5.71983E+04-5.19686E+06-2.47663E+07
 -1       185 3.76557E-06 8.15181E-06 2.97790E-06-1.65548E+05-1.20129E-06-3.05995E+07
 -1       186-8.37648E+05 2.55164E+05-3.24545E+06 1.05566E+05 2.80706E+06-1.21076E+07
 -1       187 6.58951E-06 7.54728E-06 4.58822E-06 8.57225E+04-1.95520E-07-1.98926E+07
 -1       188 8.37648E+05-2.55164E+05 3.24545E+06 1.05566E+05-2.80706E+06-1.21076E+07
 -1       189 3.21702E-06 1.83278E-05 9.04733E-06-1.46610E+05 4.21831E-07-9.33433E+06
 -1       190-5.89853E-06-7.59540E-06-3.99910E-05 5.13971E+06-1.04748E+08-4.16161E-06
 -1       191 2.53833E+06 4.72363E+06-4.28599E+06 3.27609E+05-8.34608E+07 1.87167E+06
 -1       192 3.64648E-06 5.33648E-07-1.98593E-05 5.44163E+05-1.40846E+08 8.90344E-07
 -1       193-2.53833E+06-4.72363E+06 4.28599E+06 3.27609E+05-8.34608E+07-1.87167E+06
 -1       194 4.76371E-07-5.44824E-08-1.97534E-06-1.51486E+06-1.39130E+08-5.02914E-07
 -1       195-4.43995E+04-7.31571E+05 2.95610E+06 1.99273E+05-8.10477E+07-5.00693E+06
 -1       196-2.01917E-06 5.34463E-07 1.34545E-05 4.45813E+05-1.31179E+08-2.27708E-07
 -1       197 4.43995E+04 7.31571E+05-2.95610E+06 1.99273E+05-8.10477E+07 5.00693E+06
 -1       198 9.96370E-07-2.78122E-06 2.32600E-05 1.48947E+05-1.25665E+08-8.13976E-07
 -1       199 7.28563E+05 1.46405E+05 3.54332E+06-2.96745E+05-7.33210E+07-3.08265E+06
 -1       200 3.77389E-06-6.02866E-06 3.17111E-05-6.73481E+05-1.20411E+08-4.97326E-07
 -1       201-7.28563E+05-1.46405E+05-3.54332E+06-2.96745E+05-7.33210E+07 3.08265E+06
 -1       202-1.78698E-07 1.74044E-06 3.22545E-05-6.25697E+05-1.11512E+08-1.13156E-06
 -1       203 3.92902E+05-3.25909E+05 4.67656E+06-2.12982E+05-6.24387E+07-3.03744E+06
 -1       204-3.65314E-06 8.90679E-06 3.20427E-05-4.75905E+05-1.02281E+08 1.30432E-06
 -1       205-3.92902E+05 3.25909E+05-4.67656E+06-2.12982E+05-6.24387E+07 3.03744E+06
 -1       206-7.35593E-06-3.92387E-06 2.50582E-05-5.63414E+05-9.14166E+07 1.08033E-06
 -1       207 5.70272E+05-2.94896E+05 5.51541E+06-2.98722E+05-4.91227E+07-2.33993E+06
 -1       208-1.21435E-05-1.67908E-05 1.83887E-05-6.90307E+05-8.05477E+07 5.97211E-07
 -1       209-5.70272E+05 2.94896E+05-5.51541E+06-2.98722E+05-4.91227E+07 2.33993E+06
 -1       210-1.24578E-05-9.55205E-06 1.81808E-05-6.72684E+05-6.80975E+07-2.37487E-07
 -1       211 6.10963E+05-3.17907E+05 6.15301E+06-2.04688E+05-3.39329E+07-1.58811E+06
 -1       212-1.01278E-05-1.87473E-06 1.97920E-05-6.13536E+05-5.56803E+07-6.66594E-07
 -1       213-6.10963E+05 3.17907E+05-6.15301E+06-2.04688E+05-3.39329E+07 1.58811E+06
 -1       214-3.12628E-06 1.06695E-06 1.51666E-05-8.36731E+05-4.21315E+07 2.81492E-07
 -1       215 5.84020E+05-2.83241E+05 5.62509E+06-1.64613E+05-1.80464E+07-8.12552E+05
 -1       216 6.11763E-07 1.98745E-06 6.37886E-06-4.54635E+05-2.95923E+07-1.82656E-07
 -1       217-5.84020E+05 2.83241E+05-5.62509E+06-1.64613E+05-1.80464E+07 8.12552E+05
 -1       218-1.02935E-05 7.44694E-07 4.82425E-07-7.23270E+05-1.65570E+07-5.74859E-07
 -1       219-1.43540E-07 1.19442E-07-3.45841E-07 8.70944E+06 2.58093E-07-8.59099E-06
 -1       220 8.98261E-07 4.95580E-07-2.32831E-09 3.47536E+06 1.48546E-07 5.21873E+07
 -1       221 3.85800E-07-1.94996E-08-1.06761E-05 3.77998E+06-6.73656E+07-4.79817E-06
 -1       222-1.78785E-07 2.07627E-07-6.96804E-07 7.01580E+06 4.00469E-07-1.01815E-05
 -1       223-4.06406E-07 2.69909E-07 9.43209E-06 3.77998E+06 6.73656E+07-4.80050E-06
 -1       224-9.15024E-07-7.84406E-07-1.21002E-06 3.47536E+06 2.23983E-07-5.21873E+07
 -1       225-4.36732E-07-1.33933E-06-8.78994E-07 1.25510E+06 2.91970E-07-7.52416E-06
 -1       226-1.81765E-06-6.61064E-07-7.34530E-07-6.59749E+05 6.54254E-07 4.18516E+07
 -1       227 1.91503E-07-6.23462E-07 6.71575E-06-5.33099E+05-6.35446E+07-3.32762E-06
 -1       228-4.48083E-07-3.08819E-06-8.32515E-07-1.51201E+06 1.00449E-06-6.45756E-06
 -1       229 3.56027E-07-1.12021E-06-6.61053E-06-5.33099E+05 6.35446E+07-3.17069E-06
 -1       230 2.06230E-07 3.36717E-07 4.15661E-07-6.59749E+05 5.10481E-07-4.18516E+07
 -1       231-1.05149E-06 1.29882E-06-1.25838E-07-1.65217E+06 5.70319E-07-3.62238E-06
 -1       232 8.42527E-07-1.07981E-06-1.85892E-06-9.03140E+05 4.74509E-07 3.87818E+07
 -1       233-7.16565E-07-2.23967E-07 1.55914E-05-1.19950E+06-5.82261E+07-7.79051E-07
 -1       234-1.21169E-06 6.21962E-06 1.06306E-06-1.72553E+06 5.80330E-07-1.61049E-06
 -1       235 3.52653E-06 3.00149E-06-1.51354E-05-1.19950E+06 5.82261E+07-1.27591E-06
 -1       236-9.91684E-07 5.47763E-07 1.80636E-06-9.03140E+05 7.22473E-07-3.87818E+07
 -1       237 1.02907E-06 2.22554E-06 7.53193E-07-2.16147E+06 1.84518E-07-1.26474E-06
 -1       238-2.04062E-07-5.64047E-07-2.95151E-06-1.30244E+06-1.20839E-07 3.26815E+07
 -1       239 1.20698E-06 3.24608E-06 1.64934E-05-1.48405E+06-4.94912E+07 6.28643E-07
 -1       240 4.23265E-06-2.14232E-06 5.90400E-07-2.49219E+06-8.77015E-07 2.84286E-07
 -1       241-1.85981E-07-2.10899E-06-1.62275E-05-1.48405E+06 4.94912E+07 5.12227E-07
 -1       242 4.34490E-06 1.81876E-06 3.06088E-06-1.30244E+06-1.19582E-06-3.26815E+07
 -1       243 8.79561E-07 7.70553E-07-8.88176E-08-2.69343E+06 1.74623E-07 9.75095E-07
 -1       244-4.25550E-06-1.33833E-06-3.50038E-06-1.50019E+06-8.23522E-07 2.57587E+07
 -1       245-3.75402E-06-4.18603E-06 1.06464E-05-1.78355E+06-3.89682E+07 6.81728E-07
 -1       246-3.04070E-06 4.49183E-06-4.24472E-07-2.87680E+06-9.04198E-07 2.72295E-07
 -1       247-2.39578E-06-4.15349E-06-1.67213E-05-1.78355E+06 3.89682E+07-1.69035E-07
 -1       248 5.50067E-06-1.74157E-07 2.00601E-06-1.50019E+06 1.16532E-07-2.57587E+07
 -1       249-3.45637E-07 3.08832E-06-3.13215E-07-3.10904E+06-2.57511E-07 2.50526E-06
 -1       250-3.33111E-06-1.57981E-06-2.00066E-06-1.68654E+06-5.18106E-07 1.77242E+07
 -1       251 3.14169E-07 1.05929E-06 1.15614E-05-1.94843E+06-2.69490E+07 7.18981E-07
 -1       252 2.41543E-06 7.88190E-07-3.93702E-08-3.28331E+06-9.40578E-07 2.26917E-06
 -1       253-4.81450E-07-5.36675E-07-1.24171E-05-1.94843E+06 2.69490E+07 1.46474E-06
 -1       254 6.34027E-08 2.54046E-06 1.39000E-07-1.68654E+06-1.00449E-06-1.77242E+07
 -1       255-1.08969E-06-4.61862E-06-1.83552E-06-2.98833E+06 2.03145E-08 3.79561E-06
 -1       256 5.83474E-06 3.92516E-06 1.12291E-06-1.00551E+06 2.06660E-06 8.59272E+06
 -1       257 1.07681E-06-2.06787E-06 3.28186E-06-1.27569E+06-1.43347E+07 8.78004E-07
 -1       258-4.98065E-06-9.74508E-06-3.03264E-06-2.09675E+06 1.50774E-06 2.31754E-06
 -1       259 9.22249E-07-2.26259E-06-4.73345E-06-1.27569E+06 1.43347E+07-2.18162E-07
 -1       260 1.02674E-06-1.95039E-06 5.68078E-07-1.00551E+06 4.50527E-08-8.59272E+06
 -1       261 3.79074E-06-1.04557E-05-2.11963E-06-3.83123E+06-1.38604E-06 2.58035E-07
 -3
    1PSTEP                         9           1           1          
    1PGM                1.000000E+00                                  
    1PGK                4.432748E+05                                  
    1PHID                         -1                                  
    1PSUBC                         0                                  
    1PMODE                         5                                  
  100CL  105 1.05964E+02         261                     2    5MODAL      1
 -4  DISP        4    1
 -5  D1          1    2    1    0
 -5  D2          1    2    2    0
 -5  D3          1    2    3    0
 -5  ALL         1    2    0    0    1ALL
 -1         1 0.00000E+00 0.00000E+00 0.00000E+00
 -1         2 0.00000E+00 0.00000E+00 0.00000E+00
 -1         3 0.00000E+00 0.00000E+00 0.00000E+00
 -1         4 0.00000E+00 0.00000E+00 0.00000E+00
 -1         5-2.62234E-06 5.92516E-03 2.50696E-03
 -1         6 2.62234E-06 5.92516E-03 2.50696E-03
 -1         7-2.62234E-06 5.92516E-03-2.50696E-03
 -1         8 2.62234E-06 5.92516E-03-2.50696E-03
 -1         9 0.00000E+00 0.00000E+00 0.00000E+00
 -1        10 0.00000E+00 0.00000E+00 0.00000E+00
 -1        11 0.00000E+00 0.00000E+00 0.00000E+00
 -1        12 0.00000E+00 0.00000E+00 0.00000E+00
 -1        13 0.00000E+00 0.00000E+00 0.00000E+00
 -1        14 0.00000E+00 0.00000E+00 0.00000E+00
 -1        15 0.00000E+00 0.00000E+00 0.00000E+00
 -1        16 0.00000E+00 0.00000E+00 0.00000E+00
 -1        17 0.00000E+00 0.00000E+00 0.00000E+00
 -1        18 0.00000E+00 0.00000E+00 0.00000E+00
 -1        19 0.00000E+00 0.00000E+00 0.00000E+00
 -1        20 0.00000E+00 0.00000E+00 0.00000E+00
 -1        21-1.23591E-06 5.92508E-03 2.51017E-03
 -1        22-8.41341E-17 5.92574E-03 2.51144E-03
 -1        23 1.23591E-06 5.92508E-03 2.51017E-03
 -1        24 1.59283E-06 5.92077E-03 1.24842E-03
 -1        25-2.22871E-16 5.91392E-03 4.77049E-18
 -1        26-1.59283E-06 5.92077E-03-1.24842E-03
 -1        27-1.23591E-06 5.92508E-03-2.51017E-03
 -1        28-3.51715E-16 5.92574E-03-2.51144E-03
 -1        29 1.23591E-06 5.92508E-03-2.51017E-03
 -1        30 1.59283E-06 5.92077E-03-1.24842E-03
 -1        31-2.21801E-16 5.91392E-03-8.15320E-17
 -1        32-1.59283E-06 5.92077E-03 1.24842E-03
 -1        33 1.57391E-04-4.59228E-04-5.06415E-04
 -1        34 4.54071E-05-1.14698E-03-8.66402E-04
 -1        35 1.65812E-05-2.03846E-03-1.01033E-03
 -1        36-3.80536E-05-2.89838E-03-9.76200E-04
 -1        37-7.58710E-05-3.67753E-03-7.86704E-04
 -1        38-1.11072E-04-4.23913E-03-4.72806E-04
 -1        39-1.32883E-04-4.51717E-03-6.32700E-05
 -1        40-1.43768E-04-4.45154E-03 4.01500E-04
 -1        41-1.42493E-04-4.02364E-03 8.81675E-04
 -1        42-1.30865E-04-3.23782E-03 1.34171E-03
 -1        43-1.10427E-04-2.12921E-03 1.74434E-03
 -1        44-8.41143E-05-7.53357E-04 2.07196E-03
 -1        45-5.54323E-05 8.16301E-04 2.30168E-03
 -1        46-2.84996E-05 2.50119E-03 2.44276E-03
 -1        47-9.09823E-06 4.22295E-03 2.49954E-03
 -1        48 9.09823E-06 4.22295E-03 2.49954E-03
 -1        49 2.84996E-05 2.50119E-03 2.44276E-03
 -1        50 5.54323E-05 8.16301E-04 2.30168E-03
 -1        51 8.41143E-05-7.53357E-04 2.07196E-03
 -1        52 1.10427E-04-2.12921E-03 1.74434E-03
 -1        53 1.30865E-04-3.23782E-03 1.34171E-03
 -1        54 1.42493E-04-4.02364E-03 8.81675E-04
 -1        55 1.43768E-04-4.45154E-03 4.01500E-04
 -1        56 1.32883E-04-4.51717E-03-6.32700E-05
 -1        57 1.11072E-04-4.23913E-03-4.72806E-04
 -1        58 7.58710E-05-3.67753E-03-7.86704E-04
 -1        59 3.80536E-05-2.89838E-03-9.76200E-04
 -1        60-1.65812E-05-2.03846E-03-1.01033E-03
 -1        61-4.54071E-05-1.14698E-03-8.66402E-04
 -1        62-1.57391E-04-4.59228E-04-5.06415E-04
 -1        63-1.57391E-04-4.59228E-04 5.06415E-04
 -1        64-4.54071E-05-1.14698E-03 8.66402E-04
 -1        65-1.65812E-05-2.03846E-03 1.01033E-03
 -1        66 3.80536E-05-2.89838E-03 9.76200E-04
 -1        67 7.58710E-05-3.67753E-03 7.86704E-04
 -1        68 1.11072E-04-4.23913E-03 4.72806E-04
 -1        69 1.32883E-04-4.51717E-03 6.32700E-05
 -1        70 1.43768E-04-4.45154E-03-4.01500E-04
 -1        71 1.42493E-04-4.02364E-03-8.81675E-04
 -1        72 1.30865E-04-3.23782E-03-1.34171E-03
 -1        73 1.10427E-04-2.12921E-03-1.74434E-03
 -1        74 8.41143E-05-7.53357E-04-2.07196E-03
 -1        75 5.54323E-05 8.16301E-04-2.30168E-03
 -1        76 2.84996E-05 2.50119E-03-2.44276E-03
 -1        77 9.09823E-06 4.22295E-03-2.49954E-03
 -1        78 1.57391E-04-4.59228E-04 5.06415E-04
 -1        79 4.54071E-05-1.14698E-03 8.66402E-04
 -1        80 1.65812E-05-2.03846E-03 1.01033E-03
 -1        81-3.80536E-05-2.89838E-03 9.76200E-04
 -1        82-7.58710E-05-3.67753E-03 7.86704E-04
 -1        83-1.11072E-04-4.23913E-03 4.72806E-04
 -1        84-1.32883E-04-4.51717E-03 6.32700E-05
 -1        85-1.43768E-04-4.45154E-03-4.01500E-04
 -1        86-1.42493E-04-4.02364E-03-8.81675E-04
 -1        87-1.30865E-04-3.23782E-03-1.34171E-03
 -1        88-1.10427E-04-2.12921E-03-1.74434E-03
 -1        89-8.41143E-05-7.53357E-04-2.07196E-03
 -1        90-5.54323E-05 8.16301E-04-2.30168E-03
 -1        91-2.84996E-05 2.50119E-03-2.44276E-03
 -1        92-9.09823E-06 4.22295E-03-2.49954E-03
 -1        93 0.00000E+00 0.00000E+00 0.00000E+00
 -1        94 0.00000E+00 0.00000E+00 0.00000E+00
 -1        95 0.00000E+00 0.00000E+00 0.00000E+00
 -1        96 0.00000E+00 0.00000E+00 0.00000E+00
 -1        97 0.00000E+00 0.00000E+00 0.00000E+00
 -1        98-1.64582E-16 5.92180E-03 1.25137E-03
 -1        99-1.99303E-16 5.91405E-03-5.82217E-17
 -1       100-2.16014E-16 5.91529E-03-3.33392E-17
 -1       101-2.26571E-16 5.91405E-03-1.16010E-17
 -1       102-3.03143E-16 5.92180E-03-1.25137E-03
 -1       103 1.04626E-17-5.04027E-04-4.99660E-04
 -1       104-2.27660E-05-1.17058E-03-8.90880E-04
 -1       105 2.95987E-17-1.17315E-03-8.99269E-04
 -1       106 2.27660E-05-1.17058E-03-8.90880E-04
 -1       107 5.05238E-17-2.04085E-03-1.02443E-03
 -1       108 1.92916E-05-2.88906E-03-9.89794E-04
 -1       109 7.11237E-17-2.88914E-03-9.93004E-04
 -1       110-1.92916E-05-2.88906E-03-9.89794E-04
 -1       111 8.69530E-17-3.65048E-03-7.98351E-04
 -1       112 5.55837E-05-4.21182E-03-4.81160E-04
 -1       113 9.54098E-17-4.20316E-03-4.81891E-04
 -1       114-5.55837E-05-4.21182E-03-4.81160E-04
 -1       115 1.02132E-16-4.47190E-03-6.84140E-05
 -1       116 7.19992E-05-4.41484E-03 4.00218E-04
 -1       117 9.38919E-17-4.40349E-03 3.99902E-04
 -1       118-7.19992E-05-4.41484E-03 4.00218E-04
 -1       119 9.32414E-17-3.97543E-03 8.83649E-04
 -1       120 6.55022E-05-3.20456E-03 1.34625E-03
 -1       121 9.02056E-17-3.19392E-03 1.34658E-03
 -1       122-6.55022E-05-3.20456E-03 1.34625E-03
 -1       123 7.34005E-17-2.09204E-03 1.75158E-03
 -1       124 4.20949E-05-7.32153E-04 2.07980E-03
 -1       125 3.73846E-17-7.25212E-04 2.08027E-03
 -1       126-4.20949E-05-7.32153E-04 2.07980E-03
 -1       127 8.56520E-18 8.34611E-04 2.31034E-03
 -1       128 1.42229E-05 2.50790E-03 2.44944E-03
 -1       129-2.90566E-17 2.51054E-03 2.44994E-03
 -1       130-1.42229E-05 2.50790E-03 2.44944E-03
 -1       131-8.71699E-17 4.22566E-03 2.50468E-03
 -1       132 1.02593E-17-3.60125E-04-1.02457E-17
 -1       133 2.18184E-05-1.11702E-03-3.57446E-04
 -1       134 2.17925E-17-1.13474E-03-1.72388E-17
 -1       135-2.18184E-05-1.11702E-03 3.57446E-04
 -1       136 3.62750E-17-2.00700E-03-1.88651E-17
 -1       137-1.78927E-05-2.92455E-03-4.37739E-04
 -1       138 4.73254E-17-2.93075E-03-2.20093E-17
 -1       139 1.78927E-05-2.92455E-03 4.37739E-04
 -1       140 5.62701E-17-3.72599E-03-2.25514E-17
 -1       141-5.49838E-05-4.29909E-03-2.04787E-04
 -1       142 6.76542E-17-4.31770E-03-2.01662E-17
 -1       143 5.49838E-05-4.29909E-03 2.04787E-04
 -1       144 6.68546E-17-4.60683E-03-1.75641E-17
 -1       145-7.10743E-05-4.52998E-03 2.06621E-04
 -1       146 6.29379E-17-4.55230E-03-1.53957E-17
 -1       147 7.10743E-05-4.52998E-03-2.06621E-04
 -1       148 4.65123E-17-4.12212E-03-8.89046E-18
 -1       149-6.48728E-05-3.30932E-03 6.53937E-04
 -1       150 3.89229E-17-3.33055E-03 2.49366E-18
 -1       151 6.48728E-05-3.30932E-03-6.53937E-04
 -1       152-2.91379E-18-2.20736E-03 5.85469E-18
 -1       153-4.19011E-05-8.00434E-04 1.00666E-03
 -1       154-4.08609E-17-8.15613E-04 9.64940E-18
 -1       155 4.19011E-05-8.00434E-04-1.00666E-03
 -1       156-9.68193E-17 7.72933E-04 1.50759E-17
 -1       157-1.48103E-05 2.48282E-03 1.19759E-03
 -1       158-1.41976E-16 2.47413E-03 1.85670E-17
 -1       159 1.48103E-05 2.48282E-03-1.19759E-03
 -1       160-1.83501E-16 4.21131E-03 2.05456E-17
 -1       161 1.62630E-18-5.04027E-04 4.99660E-04
 -1       162-2.27660E-05-1.17058E-03 8.90880E-04
 -1       163 9.10730E-18-1.17315E-03 8.99269E-04
 -1       164 2.27660E-05-1.17058E-03 8.90880E-04
 -1       165 1.79978E-17-2.04085E-03 1.02443E-03
 -1       166 1.92916E-05-2.88906E-03 9.89794E-04
 -1       167 2.73219E-17-2.88914E-03 9.93004E-04
 -1       168-1.92916E-05-2.88906E-03 9.89794E-04
 -1       169 3.98986E-17-3.65048E-03 7.98351E-04
 -1       170 5.55837E-05-4.21182E-03 4.81160E-04
 -1       171 4.59702E-17-4.20316E-03 4.81891E-04
 -1       172-5.55837E-05-4.21182E-03 4.81160E-04
 -1       173 4.68375E-17-4.47190E-03 6.84140E-05
 -1       174 7.19992E-05-4.41484E-03-4.00218E-04
 -1       175 4.05492E-17-4.40349E-03-3.99902E-04
 -1       176-7.19992E-05-4.41484E-03-4.00218E-04
 -1       177 1.08420E-17-3.97543E-03-8.83649E-04
 -1       178 6.55022E-05-3.20456E-03-1.34625E-03
 -1       179-1.64799E-17-3.19392E-03-1.34658E-03
 -1       180-6.55022E-05-3.20456E-03-1.34625E-03
 -1       181-6.51606E-17-2.09204E-03-1.75158E-03
 -1       182 4.20949E-05-7.32153E-04-2.07980E-03
 -1       183-1.30592E-16-7.25212E-04-2.08027E-03
 -1       184-4.20949E-05-7.32153E-04-2.07980E-03
 -1       185-1.94072E-16 8.34611E-04-2.31034E-03
 -1       186 1.42229E-05 2.50790E-03-2.44944E-03
 -1       187-2.67581E-16 2.51054E-03-2.44994E-03
 -1       188-1.42229E-05 2.50790E-03-2.44944E-03
 -1       189-2.97939E-16 4.22566E-03-2.50468E-03
 -1       190 7.15573E-18-3.60125E-04 4.17418E-18
 -1       191 2.18184E-05-1.11702E-03 3.57446E-04
 -1       192 1.96850E-17-1.13474E-03 8.02310E-18
 -1       193-2.18184E-05-1.11702E-03-3.57446E-04
 -1       194 3.61988E-17-2.00700E-03 6.07153E-18
 -1       195-1.78927E-05-2.92455E-03 4.37739E-04
 -1       196 4.84503E-17-2.93075E-03 2.16840E-19
 -1       197 1.78927E-05-2.92455E-03-4.37739E-04
 -1       198 5.94007E-17-3.72599E-03-5.63785E-18
 -1       199-5.49838E-05-4.29909E-03 2.04787E-04
 -1       200 6.58246E-17-4.31770E-03-1.32273E-17
 -1       201 5.49838E-05-4.29909E-03-2.04787E-04
 -1       202 6.26025E-17-4.60683E-03-2.34188E-17
 -1       203-7.10743E-05-4.52998E-03-2.06621E-04
 -1       204 6.73967E-17-4.55230E-03-2.79724E-17
 -1       205 7.10743E-05-4.52998E-03 2.06621E-04
 -1       206 4.94396E-17-4.12212E-03-3.79471E-17
 -1       207-6.48728E-05-3.30932E-03-6.53937E-04
 -1       208 2.75625E-17-3.33055E-03-5.50775E-17
 -1       209 6.48728E-05-3.30932E-03 6.53937E-04
 -1       210-6.93889E-18-2.20736E-03-7.03647E-17
 -1       211-4.19011E-05-8.00434E-04-1.00666E-03
 -1       212-3.62124E-17-8.15613E-04-7.87944E-17
 -1       213 4.19011E-05-8.00434E-04 1.00666E-03
 -1       214-8.72783E-17 7.72933E-04-8.40257E-17
 -1       215-1.48103E-05 2.48282E-03-1.19759E-03
 -1       216-1.45934E-16 2.47413E-03-8.80914E-17
 -1       217 1.48103E-05 2.48282E-03 1.19759E-03
 -1       218-1.86727E-16 4.21131E-03-7.71410E-17
 -1       219 6.66806E-18-3.99495E-04-2.38524E-18
 -1       220 2.63461E-17-1.13904E-03-3.79199E-04
 -1       221 1.90244E-17-1.15471E-03 1.62630E-18
 -1       222 1.93191E-17-1.15484E-03-4.33681E-18
 -1       223 2.14549E-17-1.15471E-03-1.00831E-17
 -1       224 1.56667E-17-1.13904E-03 3.79199E-04
 -1       225 3.66664E-17-2.01352E-03-7.91468E-18
 -1       226 6.01732E-17-2.91405E-03-4.50444E-04
 -1       227 4.96022E-17-2.92051E-03-6.39679E-18
 -1       228 4.75423E-17-2.91817E-03-1.11673E-17
 -1       229 4.51570E-17-2.92051E-03-1.53957E-17
 -1       230 3.83808E-17-2.91405E-03 4.50444E-04
 -1       231 5.88993E-17-3.70196E-03-1.49620E-17
 -1       232 8.10983E-17-4.26305E-03-2.12232E-04
 -1       233 6.30735E-17-4.29051E-03-1.10589E-17
 -1       234 6.15861E-17-4.28125E-03-1.58294E-17
 -1       235 6.61397E-17-4.29051E-03-1.86483E-17
 -1       236 5.43185E-17-4.26305E-03 2.12232E-04
 -1       237 6.83318E-17-4.56400E-03-1.82146E-17
 -1       238 7.82794E-17-4.48269E-03 2.05403E-04
 -1       239 5.99564E-17-4.51665E-03-2.71051E-17
 -1       240 6.37240E-17-4.50526E-03-2.36356E-17
 -1       241 6.13387E-17-4.51665E-03-1.92988E-17
 -1       242 5.13912E-17-4.48269E-03-2.05403E-04
 -1       243 5.69206E-17-4.07579E-03-2.58040E-17
 -1       244 5.73543E-17-3.26609E-03 6.57999E-04
 -1       245 3.83604E-17-3.29817E-03-3.87060E-17
 -1       246 3.34612E-17-3.28766E-03-2.62377E-17
 -1       247 4.21213E-17-3.29817E-03-1.30104E-17
 -1       248 9.32414E-18-3.26609E-03-6.57999E-04
 -1       249 1.00831E-17-2.17118E-03-2.95987E-17
 -1       250 4.28260E-18-7.72414E-04 1.01364E-03
 -1       251-3.30140E-17-7.94586E-04-5.61888E-17
 -1       252-4.21755E-17-7.87614E-04-3.35018E-17
 -1       253-3.69713E-17-7.94586E-04-1.20346E-17
 -1       254-9.41087E-17-7.72414E-04-1.01364E-03
 -1       255-8.73325E-17 7.91600E-04-3.31918E-17
 -1       256-8.67362E-17 2.49304E-03 1.20356E-03
 -1       257-1.42356E-16 2.48191E-03-6.35071E-17
 -1       258-1.43453E-16 2.48487E-03-3.61039E-17
 -1       259-1.31341E-16 2.48191E-03-1.18720E-17
 -1       260-1.92554E-16 2.49304E-03-1.20356E-03
 -1       261-1.70152E-16 4.21473E-03-4.26091E-17
 -3
    1PSTEP                        10           1           1          
    1PGM                1.000000E+00                                  
    1PGK                4.432748E+05                                  
    1PHID                         -1                                  
    1PSUBC                         0                                  
    1PMODE                         5                                  
  100CL  105 1.05964E+02         261                     2    5MODAL      1
 -4  STRESS      6    1
 -5  SXX         1    4    1    1
 -5  SYY         1    4    2    2
 -5  SZZ         1    4    3    3
 -5  SXY         1    4    1    2
 -5  SYZ         1    4    2    3
 -5  SZX         1    4    3    1
 -1         1-7.41990E+07-8.98572E+07-2.83177E+08 6.25415E+06-4.97497E+07-4.46395E+07
 -1         2-7.41990E+07-8.98572E+07-2.83177E+08-6.25415E+06-4.97497E+07 4.46395E+07
 -1         3 7.41990E+07 8.98572E+07 2.83177E+08-6.25415E+06-4.97497E+07-4.46395E+07
 -1         4 7.41990E+07 8.98572E+07 2.83177E+08 6.25415E+06-4.97497E+07 4.46395E+07
 -1         5 1.33101E+05-2.00947E+06-5.48698E+06 5.07115E+04-4.09081E+05 3.92877E+04
 -1         6 1.33101E+05-2.00947E+06-5.48698E+06-5.07115E+04-4.09081E+05-3.92877E+04
 -1         7-1.33101E+05 2.00947E+06 5.48698E+06-5.07115E+04-4.09081E+05 3.92877E+04
 -1         8-1.33101E+05 2.00947E+06 5.48698E+06 5.07115E+04-4.09081E+05-3.92877E+04
 -1         9-7.06569E+07-8.61432E+07-2.75084E+08 1.41928E+06-5.67321E+07-2.10729E+07
 -1        10-6.71148E+07-8.24291E+07-2.66992E+08-1.72062E-07-6.37146E+07 8.54954E-07
 -1        11-7.06569E+07-8.61432E+07-2.75084E+08-1.41928E+06-5.67321E+07 2.10729E+07
 -1        12-2.90336E+07-3.01873E+07-1.29442E+08-6.38316E+06-3.42197E+07 2.22960E+07
 -1        13-1.33459E-06-1.24797E-06-5.52833E-06-6.51217E+06-1.86897E+07 1.27603E-06
 -1        14 2.90336E+07 3.01873E+07 1.29442E+08-6.38316E+06-3.42197E+07-2.22960E+07
 -1        15 7.06569E+07 8.61432E+07 2.75084E+08-1.41928E+06-5.67321E+07-2.10729E+07
 -1        16 6.71148E+07 8.24291E+07 2.66992E+08 2.53785E-07-6.37146E+07-2.24216E-07
 -1        17 7.06569E+07 8.61432E+07 2.75084E+08 1.41928E+06-5.67321E+07 2.10729E+07
 -1        18 2.90336E+07 3.01873E+07 1.29442E+08 6.38316E+06-3.42197E+07 2.22960E+07
 -1        19 7.76723E-07 5.97909E-07 2.29478E-06 6.51217E+06-1.86897E+07 6.54225E-07
 -1        20-2.90336E+07-3.01873E+07-1.29442E+08 6.38316E+06-3.42197E+07-2.22960E+07
 -1        21-3.87959E+04-2.00280E+06-5.64519E+06 7.01670E+04-4.66546E+05 7.17500E+04
 -1        22-2.10693E+05-1.99613E+06-5.80340E+06-1.17147E-05-5.24012E+05 7.53262E-06
 -1        23-3.87959E+04-2.00280E+06-5.64519E+06-7.01670E+04-4.66546E+05-7.17500E+04
 -1        24-3.41447E+04-2.34930E+06-1.86617E+06-1.53991E+05 1.17911E+06-3.50398E+04
 -1        25-2.59855E-06-3.31025E-05-2.11931E-05-2.57270E+05 2.76729E+06-1.41051E-06
 -1        26 3.41447E+04 2.34930E+06 1.86617E+06-1.53991E+05 1.17911E+06 3.50398E+04
 -1        27 3.87959E+04 2.00280E+06 5.64519E+06-7.01670E+04-4.66546E+05 7.17500E+04
 -1        28 2.10693E+05 1.99613E+06 5.80340E+06 6.46621E-06-5.24012E+05-1.46592E-06
 -1        29 3.87959E+04 2.00280E+06 5.64519E+06 7.01670E+04-4.66546E+05-7.17500E+04
 -1        30 3.41447E+04 2.34930E+06 1.86617E+06 1.53991E+05 1.17911E+06-3.50398E+04
 -1        31 3.14067E-05 1.12830E-06 3.09187E-06 2.57270E+05 2.76729E+06 2.84993E-06
 -1        32-3.41447E+04-2.34930E+06-1.86617E+06 1.53991E+05 1.17911E+06 3.50398E+04
 -1        33-1.73979E+07-2.86262E+07-1.86268E+08-3.44080E+06-2.34082E+07 6.66572E+06
 -1        34 1.65566E+07 1.91785E+07-9.52579E+07 1.70960E+06-5.85754E+06-1.19324E+07
 -1        35-5.91659E+05 5.03395E+06-2.48802E+07 1.29204E+06-9.21228E+06 1.00068E+06
 -1        36 1.28044E+06-4.57860E+05 5.00472E+07-8.64942E+05-7.93697E+06-2.69438E+06
 -1        37-5.67316E+05-8.11429E+05 1.02866E+08-1.35065E+05-8.14807E+06-6.69073E+05
 -1        38 7.52274E+05 2.89446E+06 1.57490E+08 2.09861E+05-5.14810E+06-7.82528E+05
 -1        39 1.73690E+05 1.88975E+06 1.81081E+08 1.91390E+05-3.32271E+06-2.22706E+05
 -1        40 4.42062E+04 1.23391E+06 2.03748E+08 5.78960E+03-8.24032E+05-1.67004E+05
 -1        41 1.07265E+05 1.25126E+06 1.95020E+08 7.08378E+04 1.08920E+06 1.41202E+05
 -1        42 4.66759E+04 1.13682E+06 1.85100E+08 6.80748E+04 3.21138E+06 3.79535E+05
 -1        43 8.65395E+04 7.83292E+05 1.52095E+08 5.60785E+04 4.26496E+06 5.10656E+05
 -1        44-2.75608E+04 1.68533E+05 1.18103E+08 1.48734E+04 5.37550E+06 6.10150E+05
 -1        45-2.59184E+04-3.58503E+05 7.84420E+07-3.52080E+04 5.22694E+06 6.37443E+05
 -1        46-2.42805E+04-4.87485E+05 3.87783E+07-4.23773E+04 4.84528E+06 5.58042E+05
 -1        47-1.89305E+05-1.42862E+06 1.53217E+07-5.08302E+04 2.09634E+06 2.07620E+05
 -1        48-1.89305E+05-1.42862E+06 1.53217E+07 5.08302E+04 2.09634E+06-2.07620E+05
 -1        49-2.42805E+04-4.87485E+05 3.87783E+07 4.23773E+04 4.84528E+06-5.58042E+05
 -1        50-2.59184E+04-3.58503E+05 7.84420E+07 3.52080E+04 5.22694E+06-6.37443E+05
 -1        51-2.75608E+04 1.68533E+05 1.18103E+08-1.48734E+04 5.37550E+06-6.10150E+05
 -1        52 8.65395E+04 7.83292E+05 1.52095E+08-5.60785E+04 4.26496E+06-5.10656E+05
 -1        53 4.66759E+04 1.13682E+06 1.85100E+08-6.80748E+04 3.21138E+06-3.79535E+05
 -1        54 1.07265E+05 1.25126E+06 1.95020E+08-7.08378E+04 1.08920E+06-1.41202E+05
 -1        55 4.42062E+04 1.23391E+06 2.03748E+08-5.78960E+03-8.24032E+05 1.67004E+05
 -1        56 1.73690E+05 1.88975E+06 1.81081E+08-1.91390E+05-3.32271E+06 2.22706E+05
 -1        57 7.52274E+05 2.89446E+06 1.57490E+08-2.09861E+05-5.14810E+06 7.82528E+05
 -1        58-5.67316E+05-8.11429E+05 1.02866E+08 1.35065E+05-8.14807E+06 6.69073E+05
 -1        59 1.28044E+06-4.57860E+05 5.00472E+07 8.64942E+05-7.93697E+06 2.69438E+06
 -1        60-5.91659E+05 5.03395E+06-2.48802E+07-1.29204E+06-9.21228E+06-1.00068E+06
 -1        61 1.65566E+07 1.91785E+07-9.52579E+07-1.70960E+06-5.85754E+06 1.19324E+07
 -1        62-1.73979E+07-2.86262E+07-1.86268E+08 3.44080E+06-2.34082E+07-6.66572E+06
 -1        63 1.73979E+07 2.86262E+07 1.86268E+08-3.44080E+06-2.34082E+07-6.66572E+06
 -1        64-1.65566E+07-1.91785E+07 9.52579E+07 1.70960E+06-5.85754E+06 1.19324E+07
 -1        65 5.91659E+05-5.03395E+06 2.48802E+07 1.29204E+06-9.21228E+06-1.00068E+06
 -1        66-1.28044E+06 4.57860E+05-5.00472E+07-8.64942E+05-7.93697E+06 2.69438E+06
 -1        67 5.67316E+05 8.11429E+05-1.02866E+08-1.35065E+05-8.14807E+06 6.69073E+05
 -1        68-7.52274E+05-2.89446E+06-1.57490E+08 2.09861E+05-5.14810E+06 7.82528E+05
 -1        69-1.73690E+05-1.88975E+06-1.81081E+08 1.91390E+05-3.32271E+06 2.22706E+05
 -1        70-4.42062E+04-1.23391E+06-2.03748E+08 5.78960E+03-8.24032E+05 1.67004E+05
 -1        71-1.07265E+05-1.25126E+06-1.95020E+08 7.08378E+04 1.08920E+06-1.41202E+05
 -1        72-4.66759E+04-1.13682E+06-1.85100E+08 6.80748E+04 3.21138E+06-3.79535E+05
 -1        73-8.65395E+04-7.83292E+05-1.52095E+08 5.60785E+04 4.26496E+06-5.10656E+05
 -1        74 2.75608E+04-1.68533E+05-1.18103E+08 1.48734E+04 5.37550E+06-6.10150E+05
 -1        75 2.59184E+04 3.58503E+05-7.84420E+07-3.52080E+04 5.22694E+06-6.37443E+05
 -1        76 2.42805E+04 4.87485E+05-3.87783E+07-4.23773E+04 4.84528E+06-5.58042E+05
 -1        77 1.89305E+05 1.42862E+06-1.53217E+07-5.08302E+04 2.09634E+06-2.07620E+05
 -1        78 1.73979E+07 2.86262E+07 1.86268E+08 3.44080E+06-2.34082E+07 6.66572E+06
 -1        79-1.65566E+07-1.91785E+07 9.52579E+07-1.70960E+06-5.85754E+06-1.19324E+07
 -1        80 5.91659E+05-5.03395E+06 2.48802E+07-1.29204E+06-9.21228E+06 1.00068E+06
 -1        81-1.28044E+06 4.57860E+05-5.00472E+07 8.64942E+05-7.93697E+06-2.69438E+06
 -1        82 5.67316E+05 8.11429E+05-1.02866E+08 1.35065E+05-8.14807E+06-6.69073E+05
 -1        83-7.52274E+05-2.89446E+06-1.57490E+08-2.09861E+05-5.14810E+06-7.82528E+05
 -1        84-1.73690E+05-1.88975E+06-1.81081E+08-1.91390E+05-3.32271E+06-2.22706E+05
 -1        85-4.42062E+04-1.23391E+06-2.03748E+08-5.78960E+03-8.24032E+05-1.67004E+05
 -1        86-1.07265E+05-1.25126E+06-1.95020E+08-7.08378E+04 1.08920E+06 1.41202E+05
 -1        87-4.66759E+04-1.13682E+06-1.85100E+08-6.80748E+04 3.21138E+06 3.79535E+05
 -1        88-8.65395E+04-7.83292E+05-1.52095E+08-5.60785E+04 4.26496E+06 5.10656E+05
 -1        89 2.75608E+04-1.68533E+05-1.18103E+08-1.48734E+04 5.37550E+06 6.10150E+05
 -1        90 2.59184E+04 3.58503E+05-7.84420E+07 3.52080E+04 5.22694E+06 6.37443E+05
 -1        91 2.42805E+04 4.87485E+05-3.87783E+07 4.23773E+04 4.84528E+06 5.58042E+05
 -1        92 1.89305E+05 1.42862E+06-1.53217E+07 5.08302E+04 2.09634E+06 2.07620E+05
 -1        93-2.55773E+07-2.63870E+07-1.21722E+08-5.91390E-08-4.75527E+07 7.24685E-07
 -1        94 1.11759E-07 2.16067E-07 4.58211E-07 1.67729E+06-2.50402E+07 6.07310E-07
 -1        95-7.35745E-08 7.45058E-09-1.16043E-06 1.09430E-08-3.13907E+07 5.78177E-07
 -1        96-4.64730E-07-5.32717E-07-3.23541E-06-1.67729E+06-2.50402E+07 9.35994E-07
 -1        97 2.55773E+07 2.63870E+07 1.21722E+08 1.10827E-07-4.75527E+07 1.68802E-07
 -1        98-2.49022E+05-2.35328E+06-2.15701E+06-3.99289E-06 7.96632E+05 3.38026E-06
 -1        99-2.11583E-06 2.12574E-06 1.22236E-07 2.76726E+05 2.44228E+06 7.13120E-07
 -1       100-1.36704E-05 2.14480E-05 9.62144E-06-5.78648E-06 2.11728E+06-1.96401E-06
 -1       101 2.84950E-06 3.33483E-06 4.48548E-07-2.76726E+05 2.44228E+06-1.95742E-06
 -1       102 2.49022E+05 2.35328E+06 2.15701E+06-4.41785E-06 7.96632E+05-2.31092E-06
 -1       103-2.05614E+07-3.03944E+07-1.95395E+08-1.39000E-07-2.65024E+07 1.65915E-06
 -1       104 1.52681E+07 1.87103E+07-9.94339E+07-1.98671E+05-2.60924E+06 6.54077E+06
 -1       105 1.39797E+07 1.82421E+07-1.03610E+08 8.03266E-08 6.39061E+05 2.28839E-06
 -1       106 1.52681E+07 1.87103E+07-9.94339E+07 1.98671E+05-2.60924E+06-6.54077E+06
 -1       107 1.01414E+06 6.94819E+06-2.03086E+07 1.05833E-06-6.60257E+06 2.01218E-06
 -1       108 7.49415E+04-1.63174E+06 4.86853E+07-8.88458E+04-7.06854E+06 1.76096E+06
 -1       109-1.13056E+06-2.80561E+06 4.73235E+07 1.73261E-06-6.20012E+06 2.20956E-06
 -1       110 7.49415E+04-1.63174E+06 4.86853E+07 8.88458E+04-7.06854E+06-1.76096E+06
 -1       111-6.29825E+05-1.01016E+06 1.04604E+08 3.56667E-07-6.22743E+06 1.87161E-06
 -1       112 8.47898E+05 2.78078E+06 1.58188E+08-1.68725E+04-4.62050E+06 7.70787E+05
 -1       113 9.43521E+05 2.66711E+06 1.58886E+08 3.40540E-07-4.09291E+06 1.79381E-06
 -1       114 8.47898E+05 2.78078E+06 1.58188E+08 1.68725E+04-4.62050E+06-7.70787E+05
 -1       115 5.04132E+05 1.88454E+06 1.83098E+08-4.88941E-07-2.50586E+06-5.19794E-08
 -1       116 6.92985E+04 1.08057E+06 2.04630E+08-8.41879E+04-7.61339E+05 1.02638E+05
 -1       117 9.43907E+04 9.27227E+05 2.05513E+08-1.51456E-06-6.98646E+05-1.32444E-06
 -1       118 6.92985E+04 1.08057E+06 2.04630E+08 8.41879E+04-7.61339E+05-1.02638E+05
 -1       119 2.46094E+05 1.10602E+06 1.96663E+08-2.26882E-06 8.18250E+05 8.50196E-07
 -1       120 1.23355E+05 1.07715E+06 1.85805E+08-6.22196E+04 2.79529E+06-3.63232E+05
 -1       121 2.00034E+05 1.01748E+06 1.86510E+08-3.74941E-06 2.37921E+06 2.32097E-06
 -1       122 1.23355E+05 1.07715E+06 1.85805E+08 6.22196E+04 2.79529E+06 3.63232E+05
 -1       123 1.48378E+05 7.04744E+05 1.52980E+08-4.69645E-08 3.20039E+06 4.37052E-07
 -1       124-4.38112E+04 1.37811E+05 1.18291E+08-2.31799E+04 4.68683E+06-6.31064E+05
 -1       125-6.00617E+04 1.07088E+05 1.18478E+08 3.29806E-06 3.99815E+06-9.89530E-10
 -1       126-4.38112E+04 1.37811E+05 1.18291E+08 2.31799E+04 4.68683E+06 6.31064E+05
 -1       127-1.10853E+05-2.78484E+05 7.81396E+07 3.03868E-06 3.94005E+06 2.48005E-06
 -1       128-1.63481E+05-4.56940E+05 3.81333E+07 5.66966E+04 4.26348E+06-5.64231E+05
 -1       129-3.02681E+05-4.26394E+05 3.74882E+07 3.60772E-06 3.68169E+06-1.35688E-06
 -1       130-1.63481E+05-4.56940E+05 3.81333E+07-5.66966E+04 4.26348E+06 5.64231E+05
 -1       131-5.49073E+05-1.44416E+06 1.44089E+07-3.65814E-06 1.46671E+06 8.65868E-07
 -1       132-1.43889E-06-5.15021E-07-3.98047E-06-3.99807E+06-5.50200E+07 3.60247E-07
 -1       133 6.06928E+06 3.39668E+06-4.83860E+07 1.58367E+06-4.33102E+07-5.66455E+06
 -1       134-2.19280E-06-5.99772E-07-2.04286E-06 1.45774E+06-8.07628E+07-1.04919E-07
 -1       135-6.06928E+06-3.39668E+06 4.83860E+07 1.58367E+06-4.33102E+07 5.66455E+06
 -1       136 8.67993E-07 1.70432E-07-7.94884E-07 1.43034E+06-6.72141E+07-2.41213E-07
 -1       137 1.84037E+06 3.35257E+06 2.49129E+07-1.00826E+06-3.42650E+07-1.09614E+06
 -1       138 3.76921E-06 9.48436E-07 9.40636E-08-1.15157E+06-6.05931E+07-1.32175E-06
 -1       139-1.84037E+06-3.35257E+06-2.49129E+07-1.00826E+06-3.42650E+07 1.09614E+06
 -1       140 1.27833E-06 3.38908E-06 1.76113E-06-2.76318E+05-4.71721E+07 7.04604E-08
 -1       141 8.72048E+04 1.77252E+06 7.71974E+07 2.43014E+05-2.07109E+07-2.39327E+05
 -1       142-5.83997E-07 5.79879E-06 3.08082E-06 2.76167E+05-3.62737E+07 1.26571E-06
 -1       143-8.72048E+04-1.77252E+06-7.71974E+07 2.43014E+05-2.07109E+07 2.39327E+05
 -1       144 2.03884E-06 2.10269E-06 2.38046E-06 1.75005E+05-2.12725E+07 6.92467E-07
 -1       145 4.72198E+04 1.69159E+06 1.00504E+08-4.69044E+03-3.77935E+06-6.08690E+04
 -1       146 3.38498E-06-8.53790E-07 1.44448E-06-1.51705E+04-6.73467E+06-8.96158E-07
 -1       147-4.72198E+04-1.69159E+06-1.00504E+08-4.69044E+03-3.77935E+06 6.08690E+04
 -1       148-1.83001E-06 6.72275E-06 4.27943E-06 3.28912E+04 6.50592E+06 8.22154E-07
 -1       149-3.52021E+04 1.17824E+06 9.14825E+07 6.36488E+04 1.13701E+07 9.33774E+04
 -1       150-6.92254E-06 1.36944E-05 5.77886E-06 5.92228E+04 1.95288E+07 1.50802E-06
 -1       151 3.52021E+04-1.17824E+06-9.14825E+07 6.36488E+04 1.13701E+07-9.33774E+04
 -1       152-8.86947E-06 6.79115E-06 2.22865E-06 4.06824E+04 2.66586E+07 2.24289E-07
 -1       153 1.29248E+04 2.75374E+05 5.88754E+07 1.17296E+04 1.94982E+07 1.37934E+05
 -1       154-8.81357E-06 6.42089E-07 2.99420E-07 8.58589E+03 3.36208E+07-4.25716E-07
 -1       155-1.29248E+04-2.75374E+05-5.88754E+07 1.17296E+04 1.94982E+07-1.37934E+05
 -1       156-1.89565E-05-4.56016E-06-5.85383E-06-2.01720E+04 3.09704E+07 7.79575E-07
 -1       157 9.58203E+03-6.45103E+05 2.01241E+07-1.69376E+04 1.66221E+07 1.53003E+05
 -1       158-2.75344E-05-6.03989E-06-8.09017E-06 8.50219E+03 2.83990E+07 4.88198E-06
 -1       159-9.58203E+03 6.45103E+05-2.01241E+07-1.69376E+04 1.66221E+07-1.53003E+05
 -1       160-1.39500E-05-1.76857E-05-1.28164E-05-1.25603E+05 1.57669E+07 2.13194E-06
 -1       161 2.05614E+07 3.03944E+07 1.95395E+08 6.66012E-07-2.65024E+07-7.70669E-08
 -1       162-1.52681E+07-1.87103E+07 9.94339E+07 1.98671E+05-2.60924E+06 6.54077E+06
 -1       163-1.39797E+07-1.82421E+07 1.03610E+08 6.44242E-07 6.39061E+05-9.42091E-08
 -1       164-1.52681E+07-1.87103E+07 9.94339E+07-1.98671E+05-2.60924E+06-6.54077E+06
 -1       165-1.01414E+06-6.94819E+06 2.03086E+07-1.28057E-09-6.60257E+06 3.31609E-07
 -1       166-7.49415E+04 1.63174E+06-4.86853E+07 8.88458E+04-7.06854E+06 1.76096E+06
 -1       167 1.13056E+06 2.80561E+06-4.73235E+07-1.89932E-07-6.20012E+06 1.60644E-06
 -1       168-7.49415E+04 1.63174E+06-4.86853E+07-8.88458E+04-7.06854E+06-1.76096E+06
 -1       169 6.29825E+05 1.01016E+06-1.04604E+08 7.94244E-07-6.22743E+06 1.30211E-06
 -1       170-8.47898E+05-2.78078E+06-1.58188E+08 1.68725E+04-4.62050E+06 7.70787E+05
 -1       171-9.43521E+05-2.66711E+06-1.58886E+08 1.84723E-06-4.09291E+06 4.86965E-07
 -1       172-8.47898E+05-2.78078E+06-1.58188E+08-1.68725E+04-4.62050E+06-7.70787E+05
 -1       173-5.04132E+05-1.88454E+06-1.83098E+08 3.21343E-08-2.50586E+06 7.79546E-07
 -1       174-6.92985E+04-1.08057E+06-2.04630E+08 8.41879E+04-7.61339E+05 1.02638E+05
 -1       175-9.43907E+04-9.27227E+05-2.05513E+08-1.40331E-06-6.98646E+05-5.07913E-07
 -1       176-6.92985E+04-1.08057E+06-2.04630E+08-8.41879E+04-7.61339E+05-1.02638E+05
 -1       177-2.46094E+05-1.10602E+06-1.96663E+08 1.46278E-06 8.18250E+05-1.89661E-06
 -1       178-1.23355E+05-1.07715E+06-1.85805E+08 6.22196E+04 2.79529E+06-3.63232E+05
 -1       179-2.00034E+05-1.01748E+06-1.86510E+08 3.96462E-06 2.37921E+06-3.47653E-06
 -1       180-1.23355E+05-1.07715E+06-1.85805E+08-6.22196E+04 2.79529E+06 3.63232E+05
 -1       181-1.48378E+05-7.04744E+05-1.52980E+08 4.55117E-07 3.20039E+06-4.86869E-06
 -1       182 4.38112E+04-1.37811E+05-1.18291E+08 2.31799E+04 4.68683E+06-6.31064E+05
 -1       183 6.00617E+04-1.07088E+05-1.18478E+08-2.71275E-06 3.99815E+06-2.70837E-06
 -1       184 4.38112E+04-1.37811E+05-1.18291E+08-2.31799E+04 4.68683E+06 6.31064E+05
 -1       185 1.10853E+05 2.78484E+05-7.81396E+07 1.72979E-06 3.94005E+06-2.97796E-06
 -1       186 1.63481E+05 4.56940E+05-3.81333E+07-5.66966E+04 4.26348E+06-5.64231E+05
 -1       187 3.02681E+05 4.26394E+05-3.74882E+07 3.92878E-06 3.68169E+06-1.98852E-06
 -1       188 1.63481E+05 4.56940E+05-3.81333E+07 5.66966E+04 4.26348E+06 5.64231E+05
 -1       189 5.49073E+05 1.44416E+06-1.44089E+07 4.30008E-06 1.46671E+06-1.20315E-07
 -1       190 3.80911E-07 3.38070E-07 1.95950E-06 3.99807E+06-5.50200E+07 3.97544E-07
 -1       191-6.06928E+06-3.39668E+06 4.83860E+07-1.58367E+06-4.33102E+07-5.66455E+06
 -1       192-5.56465E-07-8.66130E-07 1.98837E-07-1.45774E+06-8.07628E+07 3.19502E-07
 -1       193 6.06928E+06 3.39668E+06-4.83860E+07-1.58367E+06-4.33102E+07 5.66455E+06
 -1       194 5.86500E-07-8.21892E-07-2.10805E-06-1.43034E+06-6.72141E+07-7.28178E-08
 -1       195-1.84037E+06-3.35257E+06-2.49129E+07 1.00826E+06-3.42650E+07-1.09614E+06
 -1       196 2.80398E-06 4.73810E-08-1.58249E-06 1.15157E+06-6.05931E+07-6.07964E-07
 -1       197 1.84037E+06 3.35257E+06 2.49129E+07 1.00826E+06-3.42650E+07 1.09614E+06
 -1       198 3.92078E-06 7.36839E-06 1.51875E-06 2.76318E+05-4.71721E+07 5.28351E-07
 -1       199-8.72048E+04-1.77252E+06-7.71974E+07-2.43014E+05-2.07109E+07-2.39327E+05
 -1       200 5.71000E-06 1.63356E-05 2.06404E-06-2.76167E+05-3.62737E+07 1.17692E-06
 -1       201 8.72048E+04 1.77252E+06 7.71974E+07-2.43014E+05-2.07109E+07 2.39327E+05
 -1       202-4.67844E-06 1.68267E-06-4.98234E-06-1.75005E+05-2.12725E+07 1.32865E-06
 -1       203-4.72198E+04-1.69159E+06-1.00504E+08 4.69044E+03-3.77935E+06-6.08690E+04
 -1       204-1.63605E-05-1.34761E-05-1.07570E-05 1.51705E+04-6.73467E+06 1.80889E-08
 -1       205 4.72198E+04 1.69159E+06 1.00504E+08 4.69044E+03-3.77935E+06 6.08690E+04
 -1       206 2.76443E-06 4.18548E-06-3.22727E-06-3.28912E+04 6.50592E+06 2.62160E-07
 -1       207 3.52021E+04-1.17824E+06-9.14825E+07-6.36488E+04 1.13701E+07 9.33774E+04
 -1       208 2.49442E-05 2.35044E-05 6.35441E-06-5.92228E+04 1.95288E+07 9.50655E-07
 -1       209-3.52021E+04 1.17824E+06 9.14825E+07-6.36488E+04 1.13701E+07-9.33774E+04
 -1       210 1.99946E-05 9.94798E-06 3.98513E-06-4.06824E+04 2.66586E+07 9.20860E-07
 -1       211-1.29248E+04-2.75374E+05-5.88754E+07-1.17296E+04 1.94982E+07 1.37934E+05
 -1       212 9.88162E-06-5.57379E-06-1.44914E-06-8.58589E+03 3.36208E+07 1.60925E-06
 -1       213 1.29248E+04 2.75374E+05 5.88754E+07-1.17296E+04 1.94982E+07-1.37934E+05
 -1       214 2.93786E-06-9.19501E-06-4.42006E-06 2.01720E+04 3.09704E+07-3.05066E-07
 -1       215-9.58203E+03 6.45103E+05-2.01241E+07 1.69376E+04 1.66221E+07 1.53003E+05
 -1       216 2.43567E-06-1.04684E-05-4.32367E-07-8.50219E+03 2.83990E+07-5.56189E-07
 -1       217 9.58203E+03-6.45103E+05 2.01241E+07 1.69376E+04 1.66221E+07-1.53003E+05
 -1       218 1.90435E-05-3.14077E-06 4.36394E-06 1.25603E+05 1.57669E+07 1.60262E-06
 -1       219 5.99772E-07-2.55182E-07-8.76375E-07 8.00937E-08-5.53330E+07 7.07820E-07
 -1       220 4.65146E+06 2.74241E+06-5.28073E+07-3.26429E-07-3.53619E+07 1.61681E-06
 -1       221-1.16415E-07-1.15577E-06-6.64964E-07 5.31885E+04-7.60628E+07 5.81116E-07
 -1       222 8.23522E-07-8.84756E-07-1.13319E-06-6.38538E-08-7.13628E+07 1.10910E-06
 -1       223-4.34928E-07-4.62867E-07-1.39000E-06-5.31885E+04-7.60628E+07 6.35337E-07
 -1       224-4.65146E+06-2.74241E+06 5.28073E+07 6.24801E-07-3.53619E+07 5.89382E-07
 -1       225-1.05461E-06 7.50646E-07-1.42516E-06-4.36150E-07-6.06799E+07 7.40154E-07
 -1       226 7.14619E+05 2.29973E+06 2.36959E+07 2.93803E-07-3.04717E+07 1.42035E-06
 -1       227 7.02392E-07 1.75647E-06-1.27673E-06 1.97782E+05-5.76682E+07-5.66652E-08
 -1       228-2.92464E-06 2.65858E-06-1.83866E-06-6.10555E-07-5.47433E+07 7.24918E-07
 -1       229-3.40253E-07 1.40036E-06-1.30612E-06-1.97782E+05-5.76682E+07-1.83281E-07
 -1       230-7.14619E+05-2.29973E+06-2.36959E+07-1.33034E-07-3.04717E+07 1.21260E-06
 -1       231-3.48152E-06-4.85335E-06-3.56836E-06 5.20668E-07-4.23779E+07-3.88201E-07
 -1       232 1.59933E+05 1.50084E+06 7.79771E+07 1.35136E-07-1.82708E+07 3.56995E-07
 -1       233 1.43237E-06 1.85979E-06-1.29302E-06-8.31791E+04-3.43612E+07-4.76648E-07
 -1       234-3.29985E-06-1.30788E-05-4.95976E-06 1.79185E-06-3.24487E+07-1.10734E-06
 -1       235-2.16922E-06-3.87136E-06-1.09430E-06 8.31791E+04-3.43612E+07 5.90619E-07
 -1       236-1.59933E+05-1.50084E+06-7.79771E+07 2.75059E-06-1.82708E+07-3.23947E-07
 -1       237 1.12230E-06-4.76046E-06-2.69397E-06 1.68291E-06-1.91459E+07-1.34467E-07
 -1       238 8.14604E+04 1.43765E+06 1.01517E+08-3.65260E-07-3.39859E+06-3.41863E-07
 -1       239-1.14351E-06-1.88744E-06-3.04927E-06-6.32278E+04-6.41660E+06 5.79364E-07
 -1       240 4.91579E-06 5.13517E-06 7.73463E-07 1.16785E-06-6.09854E+06 9.43722E-07
 -1       241-4.28470E-07-1.42260E-07-8.33534E-07 6.32278E+04-6.41660E+06-7.46768E-08
 -1       242-8.14604E+04-1.43765E+06-1.01517E+08 7.41711E-08-3.39859E+06 3.69409E-07
 -1       243-4.75797E-07-7.16420E-07-1.19687E-06 4.61300E-06 5.71520E+06 2.62386E-07
 -1       244 4.43376E+04 1.03795E+06 9.22775E+07 3.06883E-06 9.89082E+06 1.23546E-06
 -1       245 3.65620E-06 4.58129E-06-1.76486E-06-5.33676E+04 1.84656E+07 6.87513E-07
 -1       246-5.79943E-06-9.10094E-06-4.86022E-06 7.71886E-06 1.74024E+07 3.82093E-07
 -1       247-4.44750E-07 4.91715E-06 2.97127E-06 5.33676E+04 1.84656E+07 9.23901E-07
 -1       248-4.43376E+04-1.03795E+06-9.22775E+07 4.75763E-06 9.89082E+06-1.43114E-06
 -1       249-3.34600E-06-4.92710E-06-3.33658E-06 3.83244E-06 2.37463E+07-5.89476E-07
 -1       250-1.79793E+03 2.28158E+05 5.90849E+07 2.02585E-06 1.69655E+07-6.08416E-07
 -1       251-4.42524E-07-3.98408E-06-2.82400E-06-1.68925E+04 3.17768E+07 5.12737E-07
 -1       252-7.53469E-07 1.96227E-06-1.01165E-07-2.54511E-07 2.99328E+07-1.02584E-06
 -1       253 2.23139E-07 3.48047E-06 2.14798E-06 1.68925E+04 3.17768E+07-9.46835E-07
 -1       254 1.79793E+03-2.28158E+05-5.90849E+07-1.98770E-06 1.69655E+07-1.77210E-06
 -1       255 6.27874E-06 1.08292E-05 4.02774E-06 1.34002E-06 2.75701E+07 6.73463E-08
 -1       256-1.35163E+05-5.70501E+05 1.94165E+07 3.38707E-06 1.44464E+07-2.72921E-08
 -1       257 2.13357E-06 1.27873E-06-1.57161E-07 5.81709E+03 2.68051E+07 1.06683E-06
 -1       258 1.32308E-05 1.76679E-05 5.06692E-06 4.34545E-06 2.52112E+07 1.58901E-06
 -1       259-1.45216E-06 8.13497E-06 9.62755E-07-5.81709E+03 2.68051E+07 2.68506E-06
 -1       260 1.35163E+05 5.70501E+05-1.94165E+07 4.72663E-06 1.44464E+07-5.64032E-08
 -1       261-3.22907E-07 1.90191E-05 6.24754E-06-4.25658E-07 1.37614E+07 1.25722E-06
 -3
    1PSTEP                        11           1           1          
    1PGM                1.000000E+00                                  
    1PGK                1.048882E+06                                  
    1PHID                         -1                                  
    1PSUBC                         0                                  
    1PMODE                         6                                  
  100CL  106 1.62998E+02         261                     2    6MODAL      1
 -4  DISP        4    1
 -5  D1          1    2    1    0
 -5  D2          1    2    2    0
 -5  D3          1    2    3    0
 -5  ALL         1    2    0    0    1ALL
 -1         1 0.00000E+00 0.00000E+00 0.00000E+00
 -1         2 0.00000E+00 0.00000E+00 0.00000E+00
 -1         3 0.00000E+00 0.00000E+00 0.00000E+00
 -1         4 0.00000E+00 0.00000E+00 0.00000E+00
 -1         5-3.80030E-09-2.08023E-08 4.61885E-03
 -1         6 3.80030E-09-2.08023E-08 4.61885E-03
 -1         7 3.80030E-09 2.08023E-08 4.61885E-03
 -1         8-3.80030E-09 2.08023E-08 4.61885E-03
 -1         9 0.00000E+00 0.00000E+00 0.00000E+00
 -1        10 0.00000E+00 0.00000E+00 0.00000E+00
 -1        11 0.00000E+00 0.00000E+00 0.00000E+00
 -1        12 0.00000E+00 0.00000E+00 0.00000E+00
 -1        13 0.00000E+00 0.00000E+00 0.00000E+00
 -1        14 0.00000E+00 0.00000E+00 0.00000E+00
 -1        15 0.00000E+00 0.00000E+00 0.00000E+00
 -1        16 0.00000E+00 0.00000E+00 0.00000E+00
 -1        17 0.00000E+00 0.00000E+00 0.00000E+00
 -1        18 0.00000E+00 0.00000E+00 0.00000E+00
 -1        19 0.00000E+00 0.00000E+00 0.00000E+00
 -1        20 0.00000E+00 0.00000E+00 0.00000E+00
 -1        21-2.18194E-09-2.05086E-08 4.62395E-03
 -1        22 8.84709E-17-1.81040E-08 4.62564E-03
 -1        23 2.18194E-09-2.05086E-08 4.62395E-03
 -1        24 6.44076E-10-1.20105E-08 4.63040E-03
 -1        25-3.44805E-10 2.34188E-17 4.63425E-03
 -1        26 6.44076E-10 1.20105E-08 4.63040E-03
 -1        27 2.18194E-09 2.05086E-08 4.62395E-03
 -1        28 5.72459E-17 1.81040E-08 4.62564E-03
 -1        29-2.18194E-09 2.05086E-08 4.62395E-03
 -1        30-6.44076E-10 1.20105E-08 4.63040E-03
 -1        31 3.44805E-10 1.82146E-17 4.63425E-03
 -1        32-6.44076E-10-1.20105E-08 4.63040E-03
 -1        33-1.57530E-04 1.91416E-04 4.43179E-04
 -1        34-1.06374E-04 1.89809E-04 8.71198E-04
 -1        35-1.31829E-04 2.02494E-04 1.31301E-03
 -1        36-1.23420E-04 1.89604E-04 1.73695E-03
 -1        37-1.21945E-04 1.83146E-04 2.15195E-03
 -1        38-1.14124E-04 1.71998E-04 2.54470E-03
 -1        39-1.06605E-04 1.60889E-04 2.91226E-03
 -1        40-9.74024E-05 1.46920E-04 3.25119E-03
 -1        41-8.75607E-05 1.31929E-04 3.55885E-03
 -1        42-7.66658E-05 1.15523E-04 3.83180E-03
 -1        43-6.50756E-05 9.80976E-05 4.06735E-03
 -1        44-5.28269E-05 7.96355E-05 4.26328E-03
 -1        45-4.00859E-05 6.04170E-05 4.41771E-03
 -1        46-2.69405E-05 4.06043E-05 4.52910E-03
 -1        47-1.35361E-05 2.04061E-05 4.59636E-03
 -1        48 1.35361E-05 2.04061E-05 4.59636E-03
 -1        49 2.69405E-05 4.06043E-05 4.52910E-03
 -1        50 4.00859E-05 6.04170E-05 4.41771E-03
 -1        51 5.28269E-05 7.96355E-05 4.26328E-03
 -1        52 6.50756E-05 9.80976E-05 4.06735E-03
 -1        53 7.66658E-05 1.15523E-04 3.83180E-03
 -1        54 8.75607E-05 1.31929E-04 3.55885E-03
 -1        55 9.74024E-05 1.46920E-04 3.25119E-03
 -1        56 1.06605E-04 1.60889E-04 2.91226E-03
 -1        57 1.14124E-04 1.71998E-04 2.54470E-03
 -1        58 1.21945E-04 1.83146E-04 2.15195E-03
 -1        59 1.23420E-04 1.89604E-04 1.73695E-03
 -1        60 1.31829E-04 2.02494E-04 1.31301E-03
 -1        61 1.06374E-04 1.89809E-04 8.71198E-04
 -1        62 1.57530E-04 1.91416E-04 4.43179E-04
 -1        63-1.57530E-04-1.91416E-04 4.43179E-04
 -1        64-1.06374E-04-1.89809E-04 8.71198E-04
 -1        65-1.31829E-04-2.02494E-04 1.31301E-03
 -1        66-1.23420E-04-1.89604E-04 1.73695E-03
 -1        67-1.21945E-04-1.83146E-04 2.15195E-03
 -1        68-1.14124E-04-1.71998E-04 2.54470E-03
 -1        69-1.06605E-04-1.60889E-04 2.91226E-03
 -1        70-9.74024E-05-1.46920E-04 3.25119E-03
 -1        71-8.75607E-05-1.31929E-04 3.55885E-03
 -1        72-7.66658E-05-1.15523E-04 3.83180E-03
 -1        73-6.50756E-05-9.80976E-05 4.06735E-03
 -1        74-5.28269E-05-7.96355E-05 4.26328E-03
 -1        75-4.00859E-05-6.04170E-05 4.41771E-03
 -1        76-2.69405E-05-4.06043E-05 4.52910E-03
 -1        77-1.35361E-05-2.04061E-05 4.59636E-03
 -1        78 1.57530E-04-1.91416E-04 4.43179E-04
 -1        79 1.06374E-04-1.89809E-04 8.71198E-04
 -1        80 1.31829E-04-2.02494E-04 1.31301E-03
 -1        81 1.23420E-04-1.89604E-04 1.73695E-03
 -1        82 1.21945E-04-1.83146E-04 2.15195E-03
 -1        83 1.14124E-04-1.71998E-04 2.54470E-03
 -1        84 1.06605E-04-1.60889E-04 2.91226E-03
 -1        85 9.74024E-05-1.46920E-04 3.25119E-03
 -1        86 8.75607E-05-1.31929E-04 3.55885E-03
 -1        87 7.66658E-05-1.15523E-04 3.83180E-03
 -1        88 6.50756E-05-9.80976E-05 4.06735E-03
 -1        89 5.28269E-05-7.96355E-05 4.26328E-03
 -1        90 4.00859E-05-6.04170E-05 4.41771E-03
 -1        91 2.69405E-05-4.06043E-05 4.52910E-03
 -1        92 1.35361E-05-2.04061E-05 4.59636E-03
 -1        93 0.00000E+00 0.00000E+00 0.00000E+00
 -1        94 0.00000E+00 0.00000E+00 0.00000E+00
 -1        95 0.00000E+00 0.00000E+00 0.00000E+00
 -1        96 0.00000E+00 0.00000E+00 0.00000E+00
 -1        97 0.00000E+00 0.00000E+00 0.00000E+00
 -1        98 7.28584E-17-1.08532E-08 4.63719E-03
 -1        99-4.87441E-10 4.94396E-17 4.63934E-03
 -1       100 6.97684E-17 3.25261E-17 4.64104E-03
 -1       101 4.87441E-10 4.30428E-17 4.63934E-03
 -1       102 4.16334E-17 1.08532E-08 4.63719E-03
 -1       103 1.05168E-17 1.92055E-04 4.22276E-04
 -1       104 5.37514E-05 1.89793E-04 8.77514E-04
 -1       105 2.84061E-17 1.91714E-04 8.84667E-04
 -1       106-5.37514E-05 1.89793E-04 8.77514E-04
 -1       107 4.46691E-17 1.99215E-04 1.31246E-03
 -1       108 6.14731E-05 1.91134E-04 1.74002E-03
 -1       109 5.59448E-17 1.92529E-04 1.74233E-03
 -1       110-6.14731E-05 1.91134E-04 1.74002E-03
 -1       111 6.15827E-17 1.82594E-04 2.15454E-03
 -1       112 5.72068E-05 1.72524E-04 2.54773E-03
 -1       113 4.77049E-17 1.73024E-04 2.54879E-03
 -1       114-5.72068E-05 1.72524E-04 2.54773E-03
 -1       115 3.90313E-17 1.60656E-04 2.91651E-03
 -1       116 4.87484E-05 1.47046E-04 3.25481E-03
 -1       117 3.46945E-18 1.47169E-04 3.25609E-03
 -1       118-4.87484E-05 1.47046E-04 3.25481E-03
 -1       119-1.43115E-17 1.31900E-04 3.56405E-03
 -1       120 3.83934E-05 1.15572E-04 3.83603E-03
 -1       121-3.16587E-17 1.15597E-04 3.83744E-03
 -1       122-3.83934E-05 1.15572E-04 3.83603E-03
 -1       123-3.33934E-17 9.80890E-05 4.07333E-03
 -1       124 2.64493E-05 7.96473E-05 4.26799E-03
 -1       125-4.21755E-17 7.96513E-05 4.26955E-03
 -1       126-2.64493E-05 7.96473E-05 4.26799E-03
 -1       127-1.34441E-17 6.04175E-05 4.42420E-03
 -1       128 1.34900E-05 4.06108E-05 4.53410E-03
 -1       129 1.47451E-17 4.06104E-05 4.53576E-03
 -1       130-1.34900E-05 4.06108E-05 4.53410E-03
 -1       131 3.29597E-17 2.04049E-05 4.60312E-03
 -1       132-1.55948E-04-3.11708E-18 4.06918E-04
 -1       133-1.14423E-04 9.48365E-05 8.63567E-04
 -1       134-1.21602E-04-1.08420E-17 8.68600E-04
 -1       135-1.14423E-04-9.48365E-05 8.63567E-04
 -1       136-1.32180E-04-1.71304E-17 1.31299E-03
 -1       137-1.24924E-04 9.53857E-05 1.74334E-03
 -1       138-1.26223E-04-2.51535E-17 1.74294E-03
 -1       139-1.24924E-04-9.53857E-05 1.74334E-03
 -1       140-1.21010E-04-3.51282E-17 2.15899E-03
 -1       141-1.14375E-04 8.62036E-05 2.55062E-03
 -1       142-1.14779E-04-3.33934E-17 2.55348E-03
 -1       143-1.14375E-04-8.62036E-05 2.55062E-03
 -1       144-1.06510E-04-1.95156E-17 2.92183E-03
 -1       145-9.74699E-05 7.37150E-05 3.25950E-03
 -1       146-9.74937E-05-1.25767E-17 3.26207E-03
 -1       147-9.74699E-05-7.37150E-05 3.25950E-03
 -1       148-8.74358E-05-3.46945E-18 3.57071E-03
 -1       149-7.66390E-05 5.79428E-05 3.84133E-03
 -1       150-7.66442E-05 1.47451E-17 3.84459E-03
 -1       151-7.66390E-05-5.79428E-05 3.84133E-03
 -1       152-6.50262E-05 1.56125E-17 4.08090E-03
 -1       153-5.28120E-05 3.99472E-05 4.27395E-03
 -1       154-5.27959E-05 3.46945E-17 4.27749E-03
 -1       155-5.28120E-05-3.99472E-05 4.27395E-03
 -1       156-4.00507E-05 2.73219E-17 4.43243E-03
 -1       157-2.69286E-05 2.03682E-05 4.54041E-03
 -1       158-2.69222E-05 3.20924E-17 4.54419E-03
 -1       159-2.69286E-05-2.03682E-05 4.54041E-03
 -1       160-1.35290E-05 2.90566E-17 4.61168E-03
 -1       161 8.67362E-19-1.92055E-04 4.22276E-04
 -1       162-5.37514E-05-1.89793E-04 8.77514E-04
 -1       163 5.63785E-18-1.91714E-04 8.84667E-04
 -1       164 5.37514E-05-1.89793E-04 8.77514E-04
 -1       165 1.12757E-17-1.99215E-04 1.31246E-03
 -1       166-6.14731E-05-1.91134E-04 1.74002E-03
 -1       167 1.25767E-17-1.92529E-04 1.74233E-03
 -1       168 6.14731E-05-1.91134E-04 1.74002E-03
 -1       169 1.04083E-17-1.82594E-04 2.15454E-03
 -1       170-5.72068E-05-1.72524E-04 2.54773E-03
 -1       171-2.60209E-18-1.73024E-04 2.54879E-03
 -1       172 5.72068E-05-1.72524E-04 2.54773E-03
 -1       173-2.34188E-17-1.60656E-04 2.91651E-03
 -1       174-4.87484E-05-1.47046E-04 3.25481E-03
 -1       175-3.98986E-17-1.47169E-04 3.25609E-03
 -1       176 4.87484E-05-1.47046E-04 3.25481E-03
 -1       177-6.33174E-17-1.31900E-04 3.56405E-03
 -1       178-3.83934E-05-1.15572E-04 3.83603E-03
 -1       179-6.50521E-17-1.15597E-04 3.83744E-03
 -1       180 3.83934E-05-1.15572E-04 3.83603E-03
 -1       181-5.29091E-17-9.80890E-05 4.07333E-03
 -1       182-2.64493E-05-7.96473E-05 4.26799E-03
 -1       183-3.94650E-17-7.96513E-05 4.26955E-03
 -1       184 2.64493E-05-7.96473E-05 4.26799E-03
 -1       185-2.08167E-17-6.04175E-05 4.42420E-03
 -1       186-1.34900E-05-4.06108E-05 4.53410E-03
 -1       187-0.00000E+00-4.06104E-05 4.53576E-03
 -1       188 1.34900E-05-4.06108E-05 4.53410E-03
 -1       189 3.20924E-17-2.04049E-05 4.60312E-03
 -1       190 1.55948E-04-1.00831E-17 4.06918E-04
 -1       191 1.14423E-04-9.48365E-05 8.63567E-04
 -1       192 1.21602E-04-2.64545E-17 8.68600E-04
 -1       193 1.14423E-04 9.48365E-05 8.63567E-04
 -1       194 1.32180E-04-4.40186E-17 1.31299E-03
 -1       195 1.24924E-04-9.53857E-05 1.74334E-03
 -1       196 1.26223E-04-5.81132E-17 1.74294E-03
 -1       197 1.24924E-04 9.53857E-05 1.74334E-03
 -1       198 1.21010E-04-6.72205E-17 2.15899E-03
 -1       199 1.14375E-04-8.62036E-05 2.55062E-03
 -1       200 1.14779E-04-7.15573E-17 2.55348E-03
 -1       201 1.14375E-04 8.62036E-05 2.55062E-03
 -1       202 1.06510E-04-6.57027E-17 2.92183E-03
 -1       203 9.74699E-05-7.37150E-05 3.25950E-03
 -1       204 9.74937E-05-4.22839E-17 3.26207E-03
 -1       205 9.74699E-05 7.37150E-05 3.25950E-03
 -1       206 8.74358E-05-2.16840E-17 3.57071E-03
 -1       207 7.66390E-05-5.79428E-05 3.84133E-03
 -1       208 7.66442E-05-2.16840E-18 3.84459E-03
 -1       209 7.66390E-05 5.79428E-05 3.84133E-03
 -1       210 6.50262E-05 6.50521E-18 4.08090E-03
 -1       211 5.28120E-05-3.99472E-05 4.27395E-03
 -1       212 5.27959E-05 1.97325E-17 4.27749E-03
 -1       213 5.28120E-05 3.99472E-05 4.27395E-03
 -1       214 4.00507E-05 2.71051E-17 4.43243E-03
 -1       215 2.69286E-05-2.03682E-05 4.54041E-03
 -1       216 2.69222E-05 2.47198E-17 4.54419E-03
 -1       217 2.69286E-05 2.03682E-05 4.54041E-03
 -1       218 1.35290E-05 8.67362E-18 4.61168E-03
 -1       219 6.09504E-18-6.17995E-18 3.83821E-04
 -1       220 2.29851E-17 9.47572E-05 8.77571E-04
 -1       221 6.11894E-05-2.12504E-17 8.74796E-04
 -1       222 1.67374E-17-1.70762E-17 8.82360E-04
 -1       223-6.11894E-05-1.35254E-17 8.74796E-04
 -1       224 1.21431E-17-9.47572E-05 8.77571E-04
 -1       225 2.76336E-17-3.20653E-17 1.31377E-03
 -1       226 4.51028E-17 9.68983E-05 1.74775E-03
 -1       227 6.30008E-05-5.01986E-17 1.74582E-03
 -1       228 3.18755E-17-4.39102E-17 1.74713E-03
 -1       229-6.30008E-05-3.46945E-17 1.74582E-03
 -1       230 2.23346E-17-9.68983E-05 1.74775E-03
 -1       231 3.22008E-17-5.08491E-17 2.16217E-03
 -1       232 3.59955E-17 8.67011E-05 2.55453E-03
 -1       233 5.75006E-05-6.13929E-17 2.55608E-03
 -1       234 2.30732E-17-4.05492E-17 2.55696E-03
 -1       235-5.75006E-05-3.33934E-17 2.55608E-03
 -1       236 7.58942E-18-8.67011E-05 2.55453E-03
 -1       237 2.65630E-18-4.16334E-17 2.92619E-03
 -1       238-9.10730E-18 7.38623E-05 3.26428E-03
 -1       239 4.88055E-05-2.84061E-17 3.26565E-03
 -1       240-1.34983E-17-2.55872E-17 3.26680E-03
 -1       241-4.88055E-05-1.82146E-17 3.26565E-03
 -1       242-2.51535E-17-7.38623E-05 3.26428E-03
 -1       243-3.22008E-17-7.86047E-18 3.57595E-03
 -1       244-3.70797E-17 5.79869E-05 3.84696E-03
 -1       245 3.83799E-05-1.62630E-17 3.84879E-03
 -1       246-4.47504E-17 3.03577E-18 3.85018E-03
 -1       247-3.83799E-05 1.66561E-17 3.84879E-03
 -1       248-5.59448E-17-5.79869E-05 3.84696E-03
 -1       249-3.46132E-17 1.53957E-17 4.08688E-03
 -1       250-2.99782E-17 3.99632E-05 4.28021E-03
 -1       251 2.64348E-05 1.40946E-17 4.28219E-03
 -1       252-3.07913E-17 1.17094E-17 4.28375E-03
 -1       253-2.64348E-05 2.77556E-17 4.28219E-03
 -1       254-3.89771E-17-3.99632E-05 4.28021E-03
 -1       255-6.77626E-18 4.18502E-17 4.43892E-03
 -1       256 9.97466E-18 2.03744E-05 4.54707E-03
 -1       257 1.34808E-05 1.69136E-17 4.54918E-03
 -1       258 8.98533E-18 3.05881E-17 4.55084E-03
 -1       259-1.34808E-05 2.14672E-17 4.54918E-03
 -1       260 1.47451E-17-2.03744E-05 4.54707E-03
 -1       261 4.93583E-17 2.50451E-17 4.61844E-03
 -3
    1PSTEP                        12           1           1          
    1PGM                1.000000E+00                                  
    1PGK                1.048882E+06                                  
    1PHID                         -1                                  
    1PSUBC                         0                                  
    1PMODE                         6                                  
  100CL  106 1.62998E+02         261                     2    6MODAL      1
 -4  STRESS      6    1
 -5  SXX         1    4    1    1
 -5  SYY         1    4    2    2
 -5  SZZ         1    4    3    3
 -5  SXY         1    4    1    2
 -5  SYZ         1    4    2    3
 -5  SZX         1    4    3    1
 -1         1 5.89533E+07 6.75689E+07 2.26323E+08-6.94035E+05 4.39449E+07 3.93797E+07
 -1         2 5.89533E+07 6.75689E+07 2.26323E+08 6.94035E+05 4.39449E+07-3.93797E+07
 -1         3 5.89533E+07 6.75689E+07 2.26323E+08-6.94035E+05-4.39449E+07-3.93797E+07
 -1         4 5.89533E+07 6.75689E+07 2.26323E+08 6.94035E+05-4.39449E+07 3.93797E+07
 -1         5-4.66773E+02 3.12853E+02 5.79679E+04 1.30056E+01 1.35810E+03 8.99821E+01
 -1         6-4.66773E+02 3.12853E+02 5.79679E+04-1.30055E+01 1.35810E+03-8.99821E+01
 -1         7-4.66773E+02 3.12853E+02 5.79679E+04 1.30055E+01-1.35810E+03-8.99821E+01
 -1         8-4.66773E+02 3.12853E+02 5.79679E+04-1.30055E+01-1.35810E+03 8.99821E+01
 -1         9 5.31052E+07 6.17433E+07 2.12655E+08-3.63903E+05 4.38595E+07 1.82169E+07
 -1        10 4.72571E+07 5.59177E+07 1.98986E+08-7.27559E-08 4.37740E+07 9.19448E-07
 -1        11 5.31052E+07 6.17433E+07 2.12655E+08 3.63903E+05 4.38595E+07-1.82169E+07
 -1        12 5.20469E+07 5.96722E+07 2.06907E+08 6.77151E+05 2.07156E+07-3.83784E+07
 -1        13 4.51406E+07 5.17754E+07 1.87490E+08-1.09663E-07 1.10595E-07-3.73770E+07
 -1        14 5.20469E+07 5.96722E+07 2.06907E+08-6.77151E+05-2.07156E+07-3.83784E+07
 -1        15 5.31052E+07 6.17433E+07 2.12655E+08-3.63903E+05-4.38595E+07-1.82169E+07
 -1        16 4.72571E+07 5.59177E+07 1.98986E+08 1.20519E-07-4.37740E+07-1.84402E-07
 -1        17 5.31052E+07 6.17433E+07 2.12655E+08 3.63903E+05-4.38595E+07 1.82169E+07
 -1        18 5.20469E+07 5.96722E+07 2.06907E+08 6.77151E+05-2.07156E+07 3.83784E+07
 -1        19 4.51406E+07 5.17754E+07 1.87490E+08 8.66712E-08-9.52743E-07 3.73770E+07
 -1        20 5.20469E+07 5.96722E+07 2.06907E+08-6.77151E+05 2.07156E+07 3.83784E+07
 -1        21 4.97152E+02 9.42300E+02 5.89740E+04 2.39392E+02 1.57599E+03 4.34015E+02
 -1        22 1.46108E+03 1.57175E+03 5.99800E+04-7.47138E-06 1.79389E+03 4.52199E-06
 -1        23 4.97152E+02 9.42300E+02 5.89740E+04-2.39392E+02 1.57599E+03-4.34015E+02
 -1        24-1.52160E+02 2.92450E+03 6.03515E+04 2.86447E+01 9.97867E+02-5.46918E+02
 -1        25 1.62452E+02 5.53615E+03 6.27351E+04-9.39479E-06-3.51271E-06-1.00385E+03
 -1        26-1.52160E+02 2.92450E+03 6.03515E+04-2.86447E+01-9.97867E+02-5.46918E+02
 -1        27 4.97153E+02 9.42300E+02 5.89740E+04 2.39392E+02-1.57599E+03-4.34015E+02
 -1        28 1.46108E+03 1.57175E+03 5.99800E+04 8.97179E-06-1.79389E+03-6.58360E-07
 -1        29 4.97152E+02 9.42299E+02 5.89740E+04-2.39392E+02-1.57599E+03 4.34015E+02
 -1        30-1.52160E+02 2.92450E+03 6.03515E+04 2.86447E+01-9.97867E+02 5.46918E+02
 -1        31 1.62452E+02 5.53615E+03 6.27351E+04 1.46011E-05 3.64777E-06 1.00385E+03
 -1        32-1.52160E+02 2.92450E+03 6.03515E+04-2.86447E+01 9.97867E+02 5.46918E+02
 -1        33 1.04650E+07 1.55456E+07 1.89802E+08 1.33102E+03 1.12512E+07-6.64282E+06
 -1        34-1.26736E+07-1.45307E+07 1.75042E+08-4.20720E+05-1.01930E+07 9.21703E+06
 -1        35 2.85735E+06 1.06197E+06 1.84449E+08 1.04284E+05-4.94997E+05-1.75096E+06
 -1        36-2.93559E+06-1.99892E+06 1.75800E+08-2.73368E+04-3.12983E+05 1.51730E+06
 -1        37 9.52227E+04 2.68937E+05 1.69555E+08-7.89482E+04 3.92864E+05-2.17678E+05
 -1        38-2.69701E+05-3.12184E+05 1.60173E+08 8.74011E+04-3.10711E+05 2.42333E+05
 -1        39 6.61232E+04-6.60601E+04 1.48572E+08-8.56024E+03-3.93146E+04-5.02837E+04
 -1        40-1.23113E+05-1.41762E+05 1.36484E+08 1.58086E+04 5.39479E+03 3.53042E+04
 -1        41-3.50838E+04-4.95468E+04 1.21968E+08-5.65214E+03 3.24932E+04-3.59565E+03
 -1        42-2.74435E+04-6.32989E+04 1.07345E+08 8.26967E+03-2.00232E+04 6.96975E+03
 -1        43-1.54003E+04-4.91197E+04 9.06691E+07 2.22056E+02-1.85346E+03-3.34664E+03
 -1        44-2.31281E+04-4.48269E+04 7.39701E+07 1.70090E+03 4.07242E+03 1.30148E+03
 -1        45-1.40238E+04-2.90523E+04 5.58490E+07 2.06526E+02 4.60054E+03-3.66114E+02
 -1        46-8.87886E+03-2.08338E+04 3.77188E+07 8.43949E+02 1.62470E+03-1.79361E+02
 -1        47-4.30166E+03-1.05733E+04 1.88589E+07 9.59745E+01 2.52561E+03-7.85183E+02
 -1        48-4.30166E+03-1.05733E+04 1.88589E+07-9.59745E+01 2.52561E+03 7.85183E+02
 -1        49-8.87886E+03-2.08338E+04 3.77188E+07-8.43949E+02 1.62470E+03 1.79361E+02
 -1        50-1.40238E+04-2.90523E+04 5.58490E+07-2.06526E+02 4.60054E+03 3.66114E+02
 -1        51-2.31281E+04-4.48269E+04 7.39701E+07-1.70090E+03 4.07242E+03-1.30148E+03
 -1        52-1.54003E+04-4.91197E+04 9.06691E+07-2.22056E+02-1.85346E+03 3.34664E+03
 -1        53-2.74435E+04-6.32989E+04 1.07345E+08-8.26967E+03-2.00232E+04-6.96975E+03
 -1        54-3.50838E+04-4.95468E+04 1.21968E+08 5.65214E+03 3.24932E+04 3.59565E+03
 -1        55-1.23113E+05-1.41762E+05 1.36484E+08-1.58086E+04 5.39479E+03-3.53042E+04
 -1        56 6.61232E+04-6.60601E+04 1.48572E+08 8.56024E+03-3.93146E+04 5.02837E+04
 -1        57-2.69701E+05-3.12184E+05 1.60173E+08-8.74011E+04-3.10711E+05-2.42333E+05
 -1        58 9.52227E+04 2.68937E+05 1.69555E+08 7.89482E+04 3.92864E+05 2.17678E+05
 -1        59-2.93559E+06-1.99892E+06 1.75800E+08 2.73368E+04-3.12983E+05-1.51730E+06
 -1        60 2.85735E+06 1.06197E+06 1.84449E+08-1.04284E+05-4.94997E+05 1.75096E+06
 -1        61-1.26736E+07-1.45307E+07 1.75042E+08 4.20720E+05-1.01930E+07-9.21703E+06
 -1        62 1.04650E+07 1.55456E+07 1.89802E+08-1.33102E+03 1.12512E+07 6.64282E+06
 -1        63 1.04650E+07 1.55456E+07 1.89802E+08-1.33102E+03-1.12512E+07-6.64282E+06
 -1        64-1.26736E+07-1.45307E+07 1.75042E+08 4.20720E+05 1.01930E+07 9.21703E+06
 -1        65 2.85735E+06 1.06197E+06 1.84449E+08-1.04284E+05 4.94997E+05-1.75096E+06
 -1        66-2.93559E+06-1.99892E+06 1.75800E+08 2.73368E+04 3.12983E+05 1.51730E+06
 -1        67 9.52227E+04 2.68937E+05 1.69555E+08 7.89482E+04-3.92864E+05-2.17678E+05
 -1        68-2.69701E+05-3.12184E+05 1.60173E+08-8.74011E+04 3.10711E+05 2.42333E+05
 -1        69 6.61232E+04-6.60601E+04 1.48572E+08 8.56024E+03 3.93146E+04-5.02837E+04
 -1        70-1.23113E+05-1.41762E+05 1.36484E+08-1.58086E+04-5.39479E+03 3.53042E+04
 -1        71-3.50838E+04-4.95468E+04 1.21968E+08 5.65214E+03-3.24932E+04-3.59565E+03
 -1        72-2.74435E+04-6.32989E+04 1.07345E+08-8.26967E+03 2.00232E+04 6.96975E+03
 -1        73-1.54003E+04-4.91197E+04 9.06691E+07-2.22056E+02 1.85346E+03-3.34664E+03
 -1        74-2.31281E+04-4.48269E+04 7.39701E+07-1.70090E+03-4.07242E+03 1.30148E+03
 -1        75-1.40238E+04-2.90523E+04 5.58490E+07-2.06526E+02-4.60054E+03-3.66114E+02
 -1        76-8.87886E+03-2.08338E+04 3.77188E+07-8.43949E+02-1.62470E+03-1.79361E+02
 -1        77-4.30166E+03-1.05733E+04 1.88589E+07-9.59745E+01-2.52561E+03-7.85183E+02
 -1        78 1.04650E+07 1.55456E+07 1.89802E+08 1.33102E+03-1.12512E+07 6.64282E+06
 -1        79-1.26736E+07-1.45307E+07 1.75042E+08-4.20720E+05 1.01930E+07-9.21703E+06
 -1        80 2.85735E+06 1.06197E+06 1.84449E+08 1.04284E+05 4.94997E+05 1.75096E+06
 -1        81-2.93559E+06-1.99892E+06 1.75800E+08-2.73368E+04 3.12983E+05-1.51730E+06
 -1        82 9.52227E+04 2.68937E+05 1.69555E+08-7.89482E+04-3.92864E+05 2.17678E+05
 -1        83-2.69701E+05-3.12184E+05 1.60173E+08 8.74011E+04 3.10711E+05-2.42333E+05
 -1        84 6.61232E+04-6.60601E+04 1.48572E+08-8.56024E+03 3.93146E+04 5.02837E+04
 -1        85-1.23113E+05-1.41762E+05 1.36484E+08 1.58086E+04-5.39479E+03-3.53042E+04
 -1        86-3.50838E+04-4.95468E+04 1.21968E+08-5.65214E+03-3.24932E+04 3.59565E+03
 -1        87-2.74435E+04-6.32989E+04 1.07345E+08 8.26967E+03 2.00232E+04-6.96975E+03
 -1        88-1.54003E+04-4.91197E+04 9.06691E+07 2.22056E+02 1.85346E+03 3.34664E+03
 -1        89-2.31281E+04-4.48269E+04 7.39701E+07 1.70090E+03-4.07242E+03-1.30148E+03
 -1        90-1.40238E+04-2.90523E+04 5.58490E+07 2.06526E+02-4.60054E+03 3.66114E+02
 -1        91-8.87886E+03-2.08338E+04 3.77188E+07 8.43949E+02-1.62470E+03 1.79361E+02
 -1        92-4.30166E+03-1.05733E+04 1.88589E+07 9.59745E+01-2.52561E+03 7.85183E+02
 -1        93 3.98014E+07 4.74717E+07 1.78289E+08-3.96358E-09 2.05183E+07 7.13859E-07
 -1        94 3.87432E+07 4.54005E+07 1.72541E+08 4.51982E-08-7.43661E-07 1.70848E+07
 -1        95 3.23458E+07 3.90256E+07 1.57591E+08 3.21861E-08-5.44125E-07 4.93019E-07
 -1        96 3.87432E+07 4.54005E+07 1.72541E+08-2.45345E-08-2.21655E-07-1.70848E+07
 -1        97 3.98014E+07 4.74717E+07 1.78289E+08 6.00303E-08-2.05183E+07 1.46683E-07
 -1        98 2.02814E+03 4.11260E+03 6.11588E+04-2.74249E-06 1.23281E+03 7.98305E-07
 -1        99 1.37883E+03 6.09480E+03 6.25364E+04 4.77337E-07 3.37026E-06 7.98942E+02
 -1       100 2.59521E+03 6.65346E+03 6.23376E+04-5.95451E-06 3.38227E-06-3.59588E-06
 -1       101 1.37883E+03 6.09480E+03 6.25364E+04-3.82870E-06 7.95346E-08-7.98942E+02
 -1       102 2.02814E+03 4.11260E+03 6.11588E+04-2.46181E-06-1.23281E+03-2.46237E-06
 -1       103 1.03984E+07 1.56037E+07 1.92683E+08-1.41765E-07 1.12813E+07 1.86241E-06
 -1       104-1.19793E+07-1.35409E+07 1.79527E+08 4.53503E+05-1.04784E+07-4.38020E+06
 -1       105-1.12849E+07-1.25511E+07 1.84013E+08-3.39351E-08-1.07638E+07 2.54525E-06
 -1       106-1.19793E+07-1.35409E+07 1.79527E+08-4.53503E+05-1.04784E+07 4.38020E+06
 -1       107 9.81970E+05-5.15793E+05 1.81608E+08 8.19935E-07-2.70536E+05 1.80828E-06
 -1       108-1.74025E+06-1.10824E+06 1.77566E+08 1.37614E+04-1.45469E+05-7.95886E+05
 -1       109-5.44908E+05-2.17560E+05 1.79332E+08 1.35771E-06 2.20452E+04 2.28199E-06
 -1       110-1.74025E+06-1.10824E+06 1.77566E+08-1.37614E+04-1.45469E+05 7.95886E+05
 -1       111 1.51913E+05 1.58555E+05 1.69336E+08-5.82426E-07 1.96911E+05 9.62515E-07
 -1       112-3.70006E+05-2.20648E+05 1.60557E+08-5.87616E+04-1.99283E+05-1.61704E+05
 -1       113-4.70310E+05-1.29112E+05 1.60941E+08-2.51789E-06-8.78540E+04 9.27691E-07
 -1       114-3.70006E+05-2.20648E+05 1.60557E+08 5.87616E+04-1.99283E+05 1.61704E+05
 -1       115-2.89846E+05-1.83244E+05 1.48577E+08-3.09046E-06-8.42490E+04-1.02700E-06
 -1       116-1.48256E+05-8.49310E+04 1.36608E+08-1.52637E+04 3.69284E+04-1.29189E+04
 -1       117-1.73399E+05-2.80996E+04 1.36731E+08-3.03134E-06 6.84619E+04-2.85332E-06
 -1       118-1.48256E+05-8.49310E+04 1.36608E+08 1.52637E+04 3.69284E+04 1.29189E+04
 -1       119-1.80350E+05-5.02104E+04 1.22088E+08-3.53685E-06 1.23264E+04-2.20707E-06
 -1       120-1.08513E+05-6.22473E+04 1.07413E+08-8.50772E+03-1.04517E+04-6.37878E+03
 -1       121-1.89582E+05-6.11956E+04 1.07481E+08-4.54366E-06-8.80151E+02-2.23610E-06
 -1       122-1.08513E+05-6.22473E+04 1.07413E+08 8.50772E+03-1.04517E+04 6.37878E+03
 -1       123-1.54845E+05-5.93677E+04 9.07546E+07-5.06402E-07-5.23676E+03-2.41203E-06
 -1       124-7.00067E+04-4.12502E+04 7.40112E+07-2.07535E+03 5.65588E+03 2.56877E+02
 -1       125-1.16885E+05-3.76735E+04 7.40522E+07 3.74880E-06 7.23933E+03-1.27315E-06
 -1       126-7.00067E+04-4.12502E+04 7.40112E+07 2.07535E+03 5.65588E+03-2.56877E+02
 -1       127-9.00844E+04-2.91576E+04 5.59074E+07 2.55031E-06 3.01585E+03 1.70853E-06
 -1       128-3.62427E+04-2.13242E+04 3.77391E+07-1.31494E+03 1.90256E+03 3.25250E+01
 -1       129-6.36065E+04-2.18146E+04 3.77593E+07 1.52980E-06 2.18042E+03-7.26241E-07
 -1       130-3.62427E+04-2.13242E+04 3.77391E+07 1.31494E+03 1.90256E+03-3.25250E+01
 -1       131-3.14884E+04-1.13957E+04 1.88784E+07-2.77492E-06 1.75678E+03 6.91138E-07
 -1       132 9.13514E+06 1.48671E+07 1.88617E+08-1.23720E-07 2.54018E-07-7.54893E+06
 -1       133-1.12321E+07-1.14187E+07 1.83720E+08-5.54225E+05-4.53241E+06 9.19356E+06
 -1       134-9.79065E+06-8.30670E+06 1.92398E+08 2.68919E-08 5.74975E-07 9.17008E+06
 -1       135-1.12321E+07-1.14187E+07 1.83720E+08 5.54225E+05 4.53241E+06 9.19356E+06
 -1       136 1.73105E+06 5.69956E+05 1.85860E+08 4.25396E-07 9.81381E-08-9.26559E+05
 -1       137-2.38277E+06-2.18782E+06 1.76797E+08 5.34444E+04-5.82162E+05 1.20216E+06
 -1       138-1.82996E+06-2.37672E+06 1.77794E+08 7.82780E-07-8.42498E-07 8.87020E+05
 -1       139-2.38277E+06-2.18782E+06 1.76797E+08-5.34444E+04 5.82162E+05 1.20216E+06
 -1       140 1.21804E+04-5.68687E+05 1.69789E+08-5.38868E-07 2.49216E-07-1.43482E+05
 -1       141-1.77760E+05-4.37984E+05 1.60426E+08 5.02516E+04-3.10618E+04 1.55836E+05
 -1       142-8.58195E+04-5.63783E+05 1.60679E+08-1.42920E-06 2.02181E-06 6.93396E+04
 -1       143-1.77760E+05-4.37984E+05 1.60426E+08-5.02516E+04 3.10618E+04 1.55836E+05
 -1       144-2.18821E+04-5.16411E+05 1.48876E+08 1.28712E-08 7.92541E-07 2.59191E+04
 -1       145-8.44093E+04-3.49341E+05 1.36706E+08 1.73228E+04-3.32452E+04 4.48385E+03
 -1       146-4.57055E+04-5.56919E+05 1.36928E+08-1.69009E-07-6.42405E-07-2.63365E+04
 -1       147-8.44093E+04-3.49341E+05 1.36706E+08-1.73228E+04 3.32452E+04 4.48385E+03
 -1       148-3.98190E+04-4.59265E+05 1.22237E+08-2.24825E-06 1.07132E-06-2.83552E+03
 -1       149-2.15185E+04-2.25289E+05 1.07477E+08 4.85242E+03 1.36336E+03 2.51041E+03
 -1       150-1.55935E+04-3.87280E+05 1.07608E+08-3.69594E-06-9.23408E-07-1.94894E+03
 -1       151-2.15185E+04-2.25289E+05 1.07477E+08-4.85242E+03-1.36336E+03 2.51041E+03
 -1       152-2.20127E+04-3.35929E+05 9.08806E+07-2.65937E-06-1.60976E-06 2.28682E+03
 -1       153-2.09378E+04-1.61605E+05 7.40619E+07 2.78380E+03 8.96512E+01-1.19813E+03
 -1       154-1.87475E+04-2.78382E+05 7.41538E+07-1.91017E-06-1.49826E-06-3.69775E+03
 -1       155-2.09378E+04-1.61605E+05 7.40619E+07-2.78380E+03-8.96512E+01-1.19813E+03
 -1       156-1.44711E+04-2.08729E+05 5.59804E+07-9.37983E-07-9.96771E-07-1.15720E+03
 -1       157-8.67208E+03-8.09960E+04 3.77647E+07 8.36720E+02 3.33907E+03-6.33081E+02
 -1       158-8.46530E+03-1.41158E+05 3.78106E+07 2.95292E-06 1.15559E-06-1.08680E+03
 -1       159-8.67208E+03-8.09960E+04 3.77647E+07-8.36720E+02-3.33907E+03-6.33081E+02
 -1       160-4.75215E+03-6.85295E+04 1.89067E+07-2.12403E-06-1.71399E-06-8.75494E+02
 -1       161 1.03984E+07 1.56037E+07 1.92683E+08 1.72848E-07-1.12813E+07-1.95578E-07
 -1       162-1.19793E+07-1.35409E+07 1.79527E+08 4.53503E+05 1.04784E+07 4.38020E+06
 -1       163-1.12849E+07-1.25511E+07 1.84013E+08 7.38728E-08 1.07638E+07-1.77126E-07
 -1       164-1.19793E+07-1.35409E+07 1.79527E+08-4.53503E+05 1.04784E+07-4.38020E+06
 -1       165 9.81970E+05-5.15793E+05 1.81608E+08-3.08239E-07 2.70536E+05 6.45727E-07
 -1       166-1.74025E+06-1.10824E+06 1.77566E+08 1.37614E+04 1.45469E+05 7.95886E+05
 -1       167-5.44908E+05-2.17560E+05 1.79332E+08-5.30279E-07-2.20452E+04 1.66200E-06
 -1       168-1.74025E+06-1.10824E+06 1.77566E+08-1.37614E+04 1.45469E+05-7.95886E+05
 -1       169 1.51913E+05 1.58555E+05 1.69336E+08 8.59731E-07-1.96911E+05 2.21669E-07
 -1       170-3.70006E+05-2.20648E+05 1.60557E+08-5.87616E+04 1.99283E+05 1.61704E+05
 -1       171-4.70310E+05-1.29112E+05 1.60941E+08 2.04468E-06 8.78540E+04-1.55856E-06
 -1       172-3.70006E+05-2.20648E+05 1.60557E+08 5.87616E+04 1.99283E+05-1.61704E+05
 -1       173-2.89846E+05-1.83244E+05 1.48577E+08 7.94162E-07 8.42490E+04-5.14922E-07
 -1       174-1.48256E+05-8.49310E+04 1.36608E+08-1.52637E+04-3.69284E+04 1.29189E+04
 -1       175-1.73399E+05-2.80996E+04 1.36731E+08 9.80181E-08-6.84619E+04-7.64023E-07
 -1       176-1.48256E+05-8.49310E+04 1.36608E+08 1.52637E+04-3.69284E+04-1.29189E+04
 -1       177-1.80350E+05-5.02104E+04 1.22088E+08 1.55357E-06-1.23264E+04-2.28665E-07
 -1       178-1.08513E+05-6.22473E+04 1.07413E+08-8.50772E+03 1.04517E+04 6.37878E+03
 -1       179-1.89582E+05-6.11956E+04 1.07481E+08 2.78800E-06 8.80151E+02 1.44722E-06
 -1       180-1.08513E+05-6.22473E+04 1.07413E+08 8.50772E+03 1.04517E+04-6.37878E+03
 -1       181-1.54845E+05-5.93677E+04 9.07546E+07 6.25755E-07 5.23676E+03 9.30586E-07
 -1       182-7.00067E+04-4.12502E+04 7.40112E+07-2.07535E+03-5.65588E+03-2.56877E+02
 -1       183-1.16885E+05-3.76735E+04 7.40522E+07-1.50503E-06-7.23933E+03 5.49900E-07
 -1       184-7.00067E+04-4.12502E+04 7.40112E+07 2.07535E+03-5.65588E+03 2.56877E+02
 -1       185-9.00844E+04-2.91576E+04 5.59074E+07 1.53471E-06-3.01585E+03 2.30357E-07
 -1       186-3.62427E+04-2.13242E+04 3.77391E+07-1.31494E+03-1.90256E+03-3.25250E+01
 -1       187-6.36065E+04-2.18146E+04 3.77593E+07 3.27497E-06-2.18042E+03 7.40674E-08
 -1       188-3.62427E+04-2.13242E+04 3.77391E+07 1.31494E+03-1.90256E+03 3.25250E+01
 -1       189-3.14884E+04-1.13957E+04 1.88784E+07 5.55784E-06-1.75678E+03-2.77072E-07
 -1       190 9.13514E+06 1.48671E+07 1.88617E+08 2.21975E-07-1.72877E-06 7.54893E+06
 -1       191-1.12321E+07-1.14187E+07 1.83720E+08-5.54225E+05 4.53241E+06-9.19356E+06
 -1       192-9.79065E+06-8.30670E+06 1.92398E+08 3.51865E-07-2.51085E-06-9.17008E+06
 -1       193-1.12321E+07-1.14187E+07 1.83720E+08 5.54225E+05-4.53241E+06-9.19356E+06
 -1       194 1.73105E+06 5.69956E+05 1.85860E+08 8.89369E-07-2.29327E-06 9.26559E+05
 -1       195-2.38277E+06-2.18782E+06 1.76797E+08 5.34444E+04 5.82162E+05-1.20216E+06
 -1       196-1.82996E+06-2.37672E+06 1.77794E+08 1.15293E-06-2.01305E-06-8.87020E+05
 -1       197-2.38277E+06-2.18782E+06 1.76797E+08-5.34444E+04-5.82162E+05-1.20216E+06
 -1       198 1.21804E+04-5.68687E+05 1.69789E+08-1.56240E-06-1.02902E-06 1.43482E+05
 -1       199-1.77760E+05-4.37984E+05 1.60426E+08 5.02516E+04 3.10618E+04-1.55836E+05
 -1       200-8.58195E+04-5.63783E+05 1.60679E+08-3.80293E-06-4.54354E-07-6.93396E+04
 -1       201-1.77760E+05-4.37984E+05 1.60426E+08-5.02516E+04-3.10618E+04-1.55836E+05
 -1       202-2.18821E+04-5.16411E+05 1.48876E+08-1.22676E-06 1.55846E-06-2.59191E+04
 -1       203-8.44093E+04-3.49341E+05 1.36706E+08 1.73228E+04 3.32452E+04-4.48385E+03
 -1       204-4.57055E+04-5.56919E+05 1.36928E+08 1.37846E-06 3.15429E-06 2.63365E+04
 -1       205-8.44093E+04-3.49341E+05 1.36706E+08-1.73228E+04-3.32452E+04-4.48385E+03
 -1       206-3.98190E+04-4.59265E+05 1.22237E+08-3.84411E-06 2.86408E-06 2.83552E+03
 -1       207-2.15185E+04-2.25289E+05 1.07477E+08 4.85242E+03-1.36336E+03-2.51041E+03
 -1       208-1.55935E+04-3.87280E+05 1.07608E+08-9.12682E-06 3.27201E-06 1.94894E+03
 -1       209-2.15185E+04-2.25289E+05 1.07477E+08-4.85242E+03 1.36336E+03-2.51041E+03
 -1       210-2.20127E+04-3.35929E+05 9.08806E+07-5.66343E-06 2.22016E-06-2.28682E+03
 -1       211-2.09378E+04-1.61605E+05 7.40619E+07 2.78380E+03-8.96512E+01 1.19813E+03
 -1       212-1.87475E+04-2.78382E+05 7.41538E+07-1.80733E-06 1.48530E-07 3.69775E+03
 -1       213-2.09378E+04-1.61605E+05 7.40619E+07-2.78380E+03 8.96512E+01 1.19813E+03
 -1       214-1.44711E+04-2.08729E+05 5.59804E+07-1.63831E-06-2.11309E-06 1.15720E+03
 -1       215-8.67208E+03-8.09960E+04 3.77647E+07 8.36720E+02-3.33907E+03 6.33081E+02
 -1       216-8.46530E+03-1.41158E+05 3.78106E+07-2.91041E-06-3.23315E-06 1.08680E+03
 -1       217-8.67208E+03-8.09960E+04 3.77647E+07-8.36720E+02 3.33907E+03 6.33081E+02
 -1       218-4.75215E+03-6.85295E+04 1.89067E+07 5.40331E-06 2.32446E-07 8.75494E+02
 -1       219 1.01687E+07 1.66869E+07 1.92417E+08 8.88595E-08-8.41508E-07 1.01002E-06
 -1       220-8.31691E+06-7.25117E+06 1.94605E+08-5.86369E-08-4.89576E+06 2.06649E-06
 -1       221-7.56978E+06-5.12896E+06 1.98798E+08 1.04206E-07-1.84379E-06-4.26095E+06
 -1       222-5.34892E+06-1.95122E+06 2.05198E+08 2.25917E-07-1.26945E-06 1.68412E-06
 -1       223-7.56978E+06-5.12896E+06 1.98798E+08 3.11076E-07-3.93600E-07 4.26095E+06
 -1       224-8.31691E+06-7.25117E+06 1.94605E+08 3.04530E-07 4.89576E+06 8.01811E-07
 -1       225 4.23307E+05 3.41247E+05 1.83284E+08 1.05316E-07-1.11316E-06 1.23498E-06
 -1       226-3.69715E+05-6.64129E+05 1.80035E+08 1.29556E-07-3.27614E+05 1.48834E-06
 -1       227-1.01224E+06-1.74371E+06 1.79266E+08 2.62928E-07-2.02967E-06-6.17964E+05
 -1       228-1.94523E+05-1.11070E+06 1.80738E+08-3.05746E-07-1.81829E-06 8.17125E-07
 -1       229-1.01224E+06-1.74371E+06 1.79266E+08 3.99181E-07-1.21637E-06 6.17964E+05
 -1       230-3.69715E+05-6.64129E+05 1.80035E+08-2.15805E-08 3.27614E+05 1.30078E-06
 -1       231-9.20838E+04-7.49929E+05 1.69625E+08 7.45284E-07-1.05028E-06-2.83018E-07
 -1       232-3.83557E+05-2.89957E+05 1.61025E+08-1.48069E-07 5.49381E+04-7.73837E-07
 -1       233-1.91312E+05-5.07293E+05 1.60894E+08-4.34038E-07-6.59616E-07-3.16714E+04
 -1       234-2.96804E+05-4.50802E+05 1.61109E+08 2.25464E-06-7.44378E-07-2.26940E-06
 -1       235-1.91312E+05-5.07293E+05 1.60894E+08 7.26150E-08 6.98958E-07 3.16714E+04
 -1       236-3.83557E+05-2.89957E+05 1.61025E+08 2.16611E-06-5.49381E+04-1.81100E-06
 -1       237-2.80757E+05-5.70950E+05 1.49019E+08 1.35271E-06 9.21926E-07-1.57642E-06
 -1       238-2.00304E+05-3.05877E+05 1.36869E+08-1.67139E-06 8.37137E+03-1.53618E-06
 -1       239-1.36457E+05-5.70287E+05 1.36967E+08-5.43066E-08 3.02663E-06 7.04525E+03
 -1       240-2.27209E+05-5.83654E+05 1.37007E+08-1.52567E-07 3.23131E-06-5.95490E-07
 -1       241-1.36457E+05-5.70287E+05 1.36967E+08 5.06465E-07 1.46063E-06-7.04525E+03
 -1       242-2.00304E+05-3.05877E+05 1.36869E+08 5.21673E-08-8.37137E+03-8.67978E-07
 -1       243-2.09918E+05-4.99056E+05 1.22362E+08 2.92583E-06 1.97113E-07-1.61822E-06
 -1       244-1.91506E+05-2.40739E+05 1.07588E+08 1.65678E-06 8.73747E+03-9.94891E-07
 -1       245-1.04512E+05-4.03781E+05 1.07652E+08-1.37783E-07 1.52000E-06 4.00193E+03
 -1       246-1.93430E+05-4.20283E+05 1.07696E+08 6.44286E-06-2.40098E-07-5.03922E-07
 -1       247-1.04512E+05-4.03781E+05 1.07652E+08 1.69271E-07-5.85790E-07-4.00193E+03
 -1       248-1.91506E+05-2.40739E+05 1.07588E+08 3.90826E-06-8.73747E+03 9.65310E-08
 -1       249-1.62879E+05-3.63054E+05 9.09682E+07 3.20903E-06-1.25556E-09-8.66647E-07
 -1       250-1.23779E+05-1.69286E+05 7.41340E+07 2.21935E-06 2.33988E+03-9.58765E-07
 -1       251-7.47099E+04-2.89641E+05 7.41848E+07-1.44152E-06 1.32501E-06 1.77587E+03
 -1       252-1.30672E+05-3.00899E+05 7.42159E+07-1.56094E-07 2.55338E-06-3.46493E-07
 -1       253-7.47099E+04-2.89641E+05 7.41848E+07-5.73330E-07 5.53503E-07-1.77587E+03
 -1       254-1.23779E+05-1.69286E+05 7.41340E+07-1.25356E-06-2.33988E+03 2.50648E-07
 -1       255-9.89578E+04-2.25846E+05 5.60327E+07 1.00634E-06 2.82357E-07-2.98243E-08
 -1       256-6.57722E+04-8.71835E+04 3.78019E+07 2.00260E-06 3.12533E+03-1.19455E-07
 -1       257-3.82016E+04-1.46855E+05 3.78275E+07 4.27914E-06-3.03040E-06 1.38064E+03
 -1       258-6.79379E+04-1.52552E+05 3.78445E+07 3.31885E-06-3.16103E-06 6.43706E-07
 -1       259-3.82016E+04-1.46855E+05 3.78275E+07-9.39030E-07-1.16941E-06-1.38064E+03
 -1       260-6.57722E+04-8.71835E+04 3.78019E+07 3.71863E-06-3.12533E+03 4.37074E-07
 -1       261-3.27624E+04-7.33327E+04 1.89249E+07-7.66673E-07 1.57540E-06 7.32410E-09
 -3
    1PSTEP                        13           1           1          
    1PGM                1.000000E+00                                  
    1PGK                1.542167E+06                                  
    1PHID                         -1                                  
    1PSUBC                         0                                  
    1PMODE                         7                                  
  100CL  107 1.97645E+02         261                     2    7MODAL      1
 -4  DISP        4    1
 -5  D1          1    2    1    0
 -5  D2          1    2    2    0
 -5  D3          1    2    3    0
 -5  ALL         1    2    0    0    1ALL
 -1         1 0.00000E+00 0.00000E+00 0.00000E+00
 -1         2 0.00000E+00 0.00000E+00 0.00000E+00
 -1         3 0.00000E+00 0.00000E+00 0.00000E+00
 -1         4 0.00000E+00 0.00000E+00 0.00000E+00
 -1         5-5.88969E-03-2.01296E-05-2.69097E-03
 -1         6-5.88969E-03 2.01296E-05 2.69097E-03
 -1         7-5.88969E-03-2.01296E-05 2.69097E-03
 -1         8-5.88969E-03 2.01296E-05-2.69097E-03
 -1         9 0.00000E+00 0.00000E+00 0.00000E+00
 -1        10 0.00000E+00 0.00000E+00 0.00000E+00
 -1        11 0.00000E+00 0.00000E+00 0.00000E+00
 -1        12 0.00000E+00 0.00000E+00 0.00000E+00
 -1        13 0.00000E+00 0.00000E+00 0.00000E+00
 -1        14 0.00000E+00 0.00000E+00 0.00000E+00
 -1        15 0.00000E+00 0.00000E+00 0.00000E+00
 -1        16 0.00000E+00 0.00000E+00 0.00000E+00
 -1        17 0.00000E+00 0.00000E+00 0.00000E+00
 -1        18 0.00000E+00 0.00000E+00 0.00000E+00
 -1        19 0.00000E+00 0.00000E+00 0.00000E+00
 -1        20 0.00000E+00 0.00000E+00 0.00000E+00
 -1        21-5.88583E-03-6.62760E-06-1.33401E-03
 -1        22-5.87551E-03 3.03577E-17 5.20417E-17
 -1        23-5.88583E-03 6.62760E-06 1.33401E-03
 -1        24-5.91374E-03 1.73105E-05 2.71081E-03
 -1        25-5.93309E-03-9.45424E-17 2.71526E-03
 -1        26-5.91374E-03-1.73105E-05 2.71081E-03
 -1        27-5.88583E-03-6.62760E-06 1.33401E-03
 -1        28-5.87551E-03 3.18755E-17 4.77049E-17
 -1        29-5.88583E-03 6.62760E-06-1.33401E-03
 -1        30-5.91374E-03 1.73105E-05-2.71081E-03
 -1        31-5.93309E-03 1.50921E-16-2.71526E-03
 -1        32-5.91374E-03-1.73105E-05-2.71081E-03
 -1        33-9.56597E-04 2.13873E-04 7.84281E-04
 -1        34-2.38828E-03-2.15468E-05 1.11314E-03
 -1        35-3.93531E-03-1.76952E-04 8.91747E-04
 -1        36-4.82177E-03-3.06399E-04 3.09393E-04
 -1        37-4.84140E-03-3.29971E-04-4.54296E-04
 -1        38-3.87554E-03-2.71492E-04-1.17437E-03
 -1        39-2.12804E-03-1.36434E-04-1.65809E-03
 -1        40 3.27217E-05 3.68975E-05-1.78925E-03
 -1        41 2.10537E-03 2.11058E-04-1.49559E-03
 -1        42 3.62054E-03 3.45135E-04-8.50494E-04
 -1        43 4.18663E-03 4.10740E-04 3.46518E-05
 -1        44 3.65564E-03 3.97327E-04 9.77971E-04
 -1        45 2.06427E-03 3.14827E-04 1.79208E-03
 -1        46-3.12614E-04 1.93598E-04 2.37066E-03
 -1        47-3.08541E-03 8.43893E-05 2.63640E-03
 -1        48-3.08541E-03-8.43893E-05-2.63640E-03
 -1        49-3.12614E-04-1.93598E-04-2.37066E-03
 -1        50 2.06427E-03-3.14827E-04-1.79208E-03
 -1        51 3.65564E-03-3.97327E-04-9.77971E-04
 -1        52 4.18663E-03-4.10740E-04-3.46518E-05
 -1        53 3.62054E-03-3.45135E-04 8.50494E-04
 -1        54 2.10537E-03-2.11058E-04 1.49559E-03
 -1        55 3.27217E-05-3.68975E-05 1.78925E-03
 -1        56-2.12804E-03 1.36434E-04 1.65809E-03
 -1        57-3.87554E-03 2.71492E-04 1.17437E-03
 -1        58-4.84140E-03 3.29971E-04 4.54296E-04
 -1        59-4.82177E-03 3.06399E-04-3.09393E-04
 -1        60-3.93531E-03 1.76952E-04-8.91747E-04
 -1        61-2.38828E-03 2.15468E-05-1.11314E-03
 -1        62-9.56597E-04-2.13873E-04-7.84281E-04
 -1        63-9.56597E-04-2.13873E-04 7.84281E-04
 -1        64-2.38828E-03 2.15468E-05 1.11314E-03
 -1        65-3.93531E-03 1.76952E-04 8.91747E-04
 -1        66-4.82177E-03 3.06399E-04 3.09393E-04
 -1        67-4.84140E-03 3.29971E-04-4.54296E-04
 -1        68-3.87554E-03 2.71492E-04-1.17437E-03
 -1        69-2.12804E-03 1.36434E-04-1.65809E-03
 -1        70 3.27217E-05-3.68975E-05-1.78925E-03
 -1        71 2.10537E-03-2.11058E-04-1.49559E-03
 -1        72 3.62054E-03-3.45135E-04-8.50494E-04
 -1        73 4.18663E-03-4.10740E-04 3.46518E-05
 -1        74 3.65564E-03-3.97327E-04 9.77971E-04
 -1        75 2.06427E-03-3.14827E-04 1.79208E-03
 -1        76-3.12614E-04-1.93598E-04 2.37066E-03
 -1        77-3.08541E-03-8.43893E-05 2.63640E-03
 -1        78-9.56597E-04 2.13873E-04-7.84281E-04
 -1        79-2.38828E-03-2.15468E-05-1.11314E-03
 -1        80-3.93531E-03-1.76952E-04-8.91747E-04
 -1        81-4.82177E-03-3.06399E-04-3.09393E-04
 -1        82-4.84140E-03-3.29971E-04 4.54296E-04
 -1        83-3.87554E-03-2.71492E-04 1.17437E-03
 -1        84-2.12804E-03-1.36434E-04 1.65809E-03
 -1        85 3.27217E-05 3.68975E-05 1.78925E-03
 -1        86 2.10537E-03 2.11058E-04 1.49559E-03
 -1        87 3.62054E-03 3.45135E-04 8.50494E-04
 -1        88 4.18663E-03 4.10740E-04-3.46518E-05
 -1        89 3.65564E-03 3.97327E-04-9.77971E-04
 -1        90 2.06427E-03 3.14827E-04-1.79208E-03
 -1        91-3.12614E-04 1.93598E-04-2.37066E-03
 -1        92-3.08541E-03 8.43893E-05-2.63640E-03
 -1        93 0.00000E+00 0.00000E+00 0.00000E+00
 -1        94 0.00000E+00 0.00000E+00 0.00000E+00
 -1        95 0.00000E+00 0.00000E+00 0.00000E+00
 -1        96 0.00000E+00 0.00000E+00 0.00000E+00
 -1        97 0.00000E+00 0.00000E+00 0.00000E+00
 -1        98-5.89908E-03 2.38524E-17 4.85723E-17
 -1        99-5.93520E-03 9.36751E-17-1.35136E-03
 -1       100-5.92828E-03 2.34188E-17 4.90059E-17
 -1       101-5.93520E-03-2.93277E-17 1.35136E-03
 -1       102-5.89908E-03 2.90566E-17 4.81386E-17
 -1       103-8.33997E-04 5.74627E-18 4.98733E-18
 -1       104-2.41150E-03 8.00902E-06-4.50995E-04
 -1       105-2.45961E-03 8.45678E-18 9.97466E-18
 -1       106-2.41150E-03-8.00902E-06 4.50995E-04
 -1       107-3.95791E-03 1.51788E-17 1.38778E-17
 -1       108-4.92121E-03 1.54911E-04-1.25964E-04
 -1       109-4.95315E-03 1.65883E-17 1.40946E-17
 -1       110-4.92121E-03-1.54911E-04 1.25964E-04
 -1       111-4.93446E-03 1.82688E-17 1.38778E-17
 -1       112-3.95168E-03 1.36568E-04 5.46329E-04
 -1       113-3.97681E-03 1.19262E-17 1.56125E-17
 -1       114-3.95168E-03-1.36568E-04-5.46329E-04
 -1       115-2.16628E-03 1.38778E-17 1.99493E-17
 -1       116 3.96628E-05-1.83945E-05 8.20768E-04
 -1       117 4.09977E-05 1.17094E-17 2.86229E-17
 -1       118 3.96628E-05 1.83945E-05-8.20768E-04
 -1       119 2.17198E-03 1.46367E-17 3.33934E-17
 -1       120 3.70977E-03-1.73376E-04 3.83211E-04
 -1       121 3.73399E-03 1.40404E-17 3.62124E-17
 -1       122 3.70977E-03 1.73376E-04-3.83211E-04
 -1       123 4.31398E-03 1.97325E-17 4.25820E-17
 -1       124 3.75886E-03-1.99302E-04-4.67066E-04
 -1       125 3.78845E-03 2.66714E-17 4.79217E-17
 -1       126 3.75886E-03 1.99302E-04 4.67066E-04
 -1       127 2.16325E-03 3.27429E-17 4.51028E-17
 -1       128-2.62748E-04-9.69531E-05-1.13428E-03
 -1       129-2.43565E-04 3.57583E-17 4.33681E-17
 -1       130-2.62748E-04 9.69531E-05 1.13428E-03
 -1       131-3.06090E-03 2.86229E-17 4.85723E-17
 -1       132-1.05868E-03 2.92735E-17 7.91187E-04
 -1       133-2.40783E-03-1.83706E-05 1.17115E-03
 -1       134-2.39498E-03 5.62701E-17 1.14914E-03
 -1       135-2.40783E-03 1.83706E-05 1.17115E-03
 -1       136-3.80410E-03 8.31041E-17 9.06753E-04
 -1       137-4.64957E-03-1.47331E-04 3.29086E-04
 -1       138-4.60942E-03 9.36751E-17 3.17336E-04
 -1       139-4.64957E-03 1.47331E-04 3.29086E-04
 -1       140-4.60189E-03 9.45424E-17-4.55730E-04
 -1       141-3.72583E-03-1.33201E-04-1.20005E-03
 -1       142-3.68292E-03 7.67615E-17-1.18359E-03
 -1       143-3.72583E-03 1.33201E-04-1.20005E-03
 -1       144-2.02955E-03 5.85469E-17-1.67627E-03
 -1       145 1.17439E-05 1.86516E-05-1.83489E-03
 -1       146 4.14305E-06 3.16587E-17-1.80722E-03
 -1       147 1.17439E-05-1.86516E-05-1.83489E-03
 -1       148 1.95094E-03 7.80626E-18-1.51352E-03
 -1       149 3.42621E-03 1.69790E-04-8.76618E-04
 -1       150 3.36916E-03-1.40946E-17-8.60980E-04
 -1       151 3.42621E-03-1.69790E-04-8.76618E-04
 -1       152 3.88594E-03-3.56703E-17 3.15935E-05
 -1       153 3.43180E-03 1.96028E-04 9.91281E-04
 -1       154 3.36499E-03-5.70290E-17 9.81960E-04
 -1       155 3.43180E-03-1.96028E-04 9.91281E-04
 -1       156 1.83082E-03-7.02563E-17 1.80451E-03
 -1       157-4.22837E-04 9.76511E-05 2.40231E-03
 -1       158-4.61516E-04-7.93636E-17 2.38200E-03
 -1       159-4.22837E-04-9.76511E-05 2.40231E-03
 -1       160-3.15640E-03-9.19403E-17 2.65065E-03
 -1       161-8.33997E-04 2.11419E-18-1.19262E-18
 -1       162-2.41150E-03 8.00902E-06 4.50995E-04
 -1       163-2.45961E-03 5.31259E-18 0.00000E+00
 -1       164-2.41150E-03-8.00902E-06-4.50995E-04
 -1       165-3.95791E-03 1.14858E-17 6.07153E-18
 -1       166-4.92121E-03 1.54911E-04 1.25964E-04
 -1       167-4.95315E-03 7.48099E-18 9.97466E-18
 -1       168-4.92121E-03-1.54911E-04-1.25964E-04
 -1       169-4.93446E-03 1.30104E-17 1.25767E-17
 -1       170-3.95168E-03 1.36568E-04-5.46329E-04
 -1       171-3.97681E-03 1.01915E-17 1.95156E-17
 -1       172-3.95168E-03-1.36568E-04 5.46329E-04
 -1       173-2.16628E-03 9.54098E-18 2.08167E-17
 -1       174 3.96628E-05-1.83945E-05-8.20768E-04
 -1       175 4.09977E-05 1.05168E-17 2.08167E-17
 -1       176 3.96628E-05 1.83945E-05 8.20768E-04
 -1       177 2.17198E-03 1.11131E-17 2.23346E-17
 -1       178 3.70977E-03-1.73376E-04-3.83211E-04
 -1       179 3.73399E-03 1.23599E-17 2.49062E-17
 -1       180 3.70977E-03 1.73376E-04 3.83211E-04
 -1       181 4.31398E-03 2.01662E-17 2.86229E-17
 -1       182 3.75886E-03-1.99302E-04 4.67066E-04
 -1       183 3.78845E-03 2.58040E-17 3.33257E-17
 -1       184 3.75886E-03 1.99302E-04-4.67066E-04
 -1       185 2.16325E-03 3.14419E-17 3.98986E-17
 -1       186-2.62748E-04-9.69531E-05 1.13428E-03
 -1       187-2.43565E-04 3.53450E-17 3.75134E-17
 -1       188-2.62748E-04 9.69531E-05-1.13428E-03
 -1       189-3.06090E-03 3.13877E-17 4.53197E-17
 -1       190-1.05868E-03-2.24430E-17-7.91187E-04
 -1       191-2.40783E-03-1.83706E-05-1.17115E-03
 -1       192-2.39498E-03-4.18502E-17-1.14914E-03
 -1       193-2.40783E-03 1.83706E-05-1.17115E-03
 -1       194-3.80410E-03-5.55112E-17-9.06753E-04
 -1       195-4.64957E-03-1.47331E-04-3.29086E-04
 -1       196-4.60942E-03-6.50521E-17-3.17336E-04
 -1       197-4.64957E-03 1.47331E-04-3.29086E-04
 -1       198-4.60189E-03-6.04985E-17 4.55730E-04
 -1       199-3.72583E-03-1.33201E-04 1.20005E-03
 -1       200-3.68292E-03-5.19333E-17 1.18359E-03
 -1       201-3.72583E-03 1.33201E-04 1.20005E-03
 -1       202-2.02955E-03-3.48571E-17 1.67627E-03
 -1       203 1.17439E-05 1.86516E-05 1.83489E-03
 -1       204 4.14305E-06-1.16010E-17 1.80722E-03
 -1       205 1.17439E-05-1.86516E-05 1.83489E-03
 -1       206 1.95094E-03 1.60462E-17 1.51352E-03
 -1       207 3.42621E-03 1.69790E-04 8.76618E-04
 -1       208 3.36916E-03 4.11997E-17 8.60980E-04
 -1       209 3.42621E-03-1.69790E-04 8.76618E-04
 -1       210 3.88594E-03 7.71952E-17-3.15935E-05
 -1       211 3.43180E-03 1.96028E-04-9.91281E-04
 -1       212 3.36499E-03 1.08420E-16-9.81960E-04
 -1       213 3.43180E-03-1.96028E-04-9.91281E-04
 -1       214 1.83082E-03 1.35119E-16-1.80451E-03
 -1       215-4.22837E-04 9.76511E-05-2.40231E-03
 -1       216-4.61516E-04 1.54390E-16-2.38200E-03
 -1       217-4.22837E-04-9.76511E-05-2.40231E-03
 -1       218-3.15640E-03 1.51788E-16-2.65065E-03
 -1       219-9.20938E-04 2.60209E-18 3.03577E-18
 -1       220-2.47973E-03 9.32414E-18 7.37257E-18
 -1       221-2.41200E-03-1.49620E-17-4.94666E-04
 -1       222-2.45916E-03 1.00831E-17 5.85469E-18
 -1       223-2.41200E-03 3.23092E-17 4.94666E-04
 -1       224-2.47973E-03 8.02310E-18 3.25261E-18
 -1       225-3.83419E-03 1.14925E-17 9.10730E-18
 -1       226-4.78081E-03 1.90820E-17 1.25767E-17
 -1       227-4.71371E-03-2.21177E-17-1.42202E-04
 -1       228-4.74566E-03 1.82417E-17 9.97466E-18
 -1       229-4.71371E-03 5.76796E-17 1.42202E-04
 -1       230-4.78081E-03 1.24819E-17 9.10730E-18
 -1       231-4.70840E-03 1.38236E-17 1.38778E-17
 -1       232-3.82813E-03 1.51788E-17 1.86483E-17
 -1       233-3.76249E-03-1.75641E-17 5.66364E-04
 -1       234-3.78872E-03 1.51788E-17 1.77809E-17
 -1       235-3.76249E-03 4.64039E-17-5.66364E-04
 -1       236-3.82813E-03 1.14925E-17 1.73472E-17
 -1       237-2.07322E-03 1.04083E-17 2.03830E-17
 -1       238 2.03868E-05 1.17094E-17 2.68882E-17
 -1       239 1.13132E-05 2.16840E-19 8.56958E-04
 -1       240 1.29902E-05 1.21431E-17 2.73219E-17
 -1       241 1.13132E-05 2.12504E-17-8.56958E-04
 -1       242 2.03868E-05 1.12757E-17 2.38524E-17
 -1       243 2.02214E-03 1.16010E-17 2.66714E-17
 -1       244 3.54151E-03 1.37694E-17 3.65376E-17
 -1       245 3.46266E-03 2.75387E-17 4.04011E-04
 -1       246 3.48872E-03 1.33357E-17 3.18755E-17
 -1       247 3.46266E-03 1.18585E-18-4.04011E-04
 -1       248 3.54151E-03 1.19262E-17 2.98156E-17
 -1       249 4.02311E-03 2.08167E-17 3.53721E-17
 -1       250 3.56628E-03 2.49366E-17 4.18502E-17
 -1       251 3.47207E-03 6.74374E-17-4.77082E-04
 -1       252 3.50304E-03 2.55872E-17 4.05492E-17
 -1       253 3.47207E-03-1.27936E-17 4.77082E-04
 -1       254 3.56628E-03 2.58040E-17 3.70255E-17
 -1       255 1.93453E-03 3.26345E-17 4.16334E-17
 -1       256-3.55933E-04 3.52908E-17 4.46691E-17
 -1       257-4.13939E-04 9.04225E-17-1.15848E-03
 -1       258-3.96295E-04 3.43150E-17 4.29344E-17
 -1       259-4.13939E-04-2.47198E-17 1.15848E-03
 -1       260-3.55933E-04 3.43421E-17 4.03323E-17
 -1       261-3.13564E-03 3.33934E-17 4.42354E-17
 -3
    1PSTEP                        14           1           1          
    1PGM                1.000000E+00                                  
    1PGK                1.542167E+06                                  
    1PHID                         -1                                  
    1PSUBC                         0                                  
    1PMODE                         7                                  
  100CL  107 1.97645E+02         261                     2    7MODAL      1
 -4  STRESS      6    1
 -5  SXX         1    4    1    1
 -5  SYY         1    4    2    2
 -5  SZZ         1    4    3    3
 -5  SXY         1    4    1    2
 -5  SYZ         1    4    2    3
 -5  SZX         1    4    3    1
 -1         1-1.56070E+08-1.57901E+08-5.10042E+08 1.71040E+07-6.97801E+07-9.18304E+07
 -1         2 1.56070E+08 1.57901E+08 5.10042E+08 1.71040E+07 6.97801E+07-9.18304E+07
 -1         3 1.56070E+08 1.57901E+08 5.10042E+08-1.71040E+07-6.97801E+07-9.18304E+07
 -1         4-1.56070E+08-1.57901E+08-5.10042E+08-1.71040E+07 6.97801E+07-9.18304E+07
 -1         5 2.64749E+06-8.21975E+05 1.89992E+07-1.37373E+05 5.50090E+05-4.35876E+05
 -1         6-2.64749E+06 8.21975E+05-1.89992E+07-1.37373E+05-5.50090E+05-4.35876E+05
 -1         7-2.64749E+06 8.21975E+05-1.89992E+07 1.37373E+05 5.50090E+05-4.35876E+05
 -1         8 2.64749E+06-8.21975E+05 1.89992E+07 1.37373E+05-5.50090E+05-4.35876E+05
 -1         9-4.39455E+07-6.19040E+07-2.32288E+08 1.75192E+07-3.49646E+07-6.92575E+07
 -1        10 1.37836E-06 4.20958E-07 2.61143E-06 1.79345E+07 1.24666E-06-4.66847E+07
 -1        11 4.39455E+07 6.19040E+07 2.32288E+08 1.75192E+07 3.49646E+07-6.92575E+07
 -1        12 1.54420E+08 1.57496E+08 5.10343E+08 5.00773E+06 3.42874E+07-1.08576E+08
 -1        13 1.52769E+08 1.57091E+08 5.10644E+08 6.81728E-07 5.14416E-06-1.25322E+08
 -1        14 1.54420E+08 1.57496E+08 5.10343E+08-5.00773E+06-3.42874E+07-1.08576E+08
 -1        15 4.39455E+07 6.19040E+07 2.32288E+08-1.75192E+07-3.49646E+07-6.92575E+07
 -1        16 1.04308E-07 1.11759E-07-9.83477E-07-1.79345E+07 1.62981E-07-4.66847E+07
 -1        17-4.39455E+07-6.19040E+07-2.32288E+08-1.75192E+07 3.49646E+07-6.92575E+07
 -1        18-1.54420E+08-1.57496E+08-5.10343E+08-5.00773E+06 3.42874E+07-1.08576E+08
 -1        19-1.52769E+08-1.57091E+08-5.10644E+08 2.76603E-07-4.09666E-06-1.25322E+08
 -1        20-1.54420E+08-1.57496E+08-5.10343E+08 5.00773E+06-3.42874E+07-1.08576E+08
 -1        21 4.94577E+06-1.24656E+05 7.90225E+06-1.65041E+06 1.85057E+05-7.15522E+06
 -1        22 1.84448E-06-2.69094E-06 2.07452E-07-3.16345E+06-4.22166E-07-1.38746E+07
 -1        23-4.94577E+06 1.24656E+05-7.90225E+06-1.65041E+06-1.85057E+05-7.15522E+06
 -1        24-2.64249E+06-7.45826E+06-1.95547E+07-6.53669E+05-3.93694E+05-1.73010E+05
 -1        25-2.63749E+06-1.57385E+07-2.01101E+07-7.26432E-08-9.97970E-07 8.98569E+04
 -1        26-2.64249E+06-7.45826E+06-1.95547E+07 6.53669E+05 3.93694E+05-1.73010E+05
 -1        27-4.94577E+06 1.24656E+05-7.90225E+06 1.65041E+06 1.85057E+05-7.15522E+06
 -1        28-4.99981E-06-3.53932E-06-3.26149E-06 3.16345E+06 1.58147E-06-1.38746E+07
 -1        29 4.94577E+06-1.24656E+05 7.90225E+06 1.65041E+06-1.85057E+05-7.15522E+06
 -1        30 2.64249E+06 7.45826E+06 1.95547E+07 6.53669E+05-3.93694E+05-1.73010E+05
 -1        31 2.63749E+06 1.57385E+07 2.01101E+07-3.37837E-06-4.42291E-07 8.98569E+04
 -1        32 2.64249E+06 7.45826E+06 1.95547E+07-6.53669E+05 3.93694E+05-1.73010E+05
 -1        33 5.17266E+07 4.84803E+07 2.54637E+08 1.03068E+07 8.68059E+06-4.24052E+07
 -1        34-3.72789E+07-3.71038E+07-1.05766E+07-4.72214E+06-2.83401E+07-1.12592E+07
 -1        35-1.38633E+07-7.21621E+06-1.67750E+08-4.46640E+06-7.29126E+06-1.38829E+07
 -1        36 2.63959E+06 3.29790E+06-3.17388E+08 2.82077E+06-6.21814E+06-6.67072E+06
 -1        37 1.17766E+05 1.60110E+06-3.06476E+08 2.35235E+05 1.29640E+06-2.27857E+05
 -1        38-5.16484E+06-2.08087E+06-2.83888E+08-7.09312E+05 5.92041E+06 1.22488E+07
 -1        39-2.54260E+06-1.05687E+06-1.27764E+08-5.46731E+05 9.06561E+06 1.54307E+07
 -1        40 2.50281E+05 2.42337E+05 3.44850E+07 1.75177E+05 1.11555E+07 1.97471E+07
 -1        41 2.25791E+06 6.70924E+05 1.95767E+08 3.38686E+05 9.05622E+06 1.53724E+07
 -1        42 1.30483E+06-3.40386E+05 3.49079E+08 3.91395E+03 6.27517E+06 1.10491E+07
 -1        43 3.72769E+06 9.08667E+05 3.80914E+08 5.42442E+05 1.54685E+06 2.68460E+06
 -1        44 1.31098E+06-3.37717E+05 3.96948E+08 6.91680E+04-3.23601E+06-5.44433E+06
 -1        45 2.04682E+06 5.63395E+05 2.91215E+08 2.28387E+05-6.14012E+06-1.06344E+07
 -1        46 4.63075E+05-2.66393E+05 1.75283E+08 3.86517E+04-8.05013E+06-1.46479E+07
 -1        47-3.23442E+06-1.17896E+06 6.89206E+07-4.78898E+05-4.09254E+06-7.44762E+06
 -1        48 3.23442E+06 1.17896E+06-6.89206E+07-4.78898E+05 4.09254E+06-7.44762E+06
 -1        49-4.63075E+05 2.66393E+05-1.75283E+08 3.86517E+04 8.05013E+06-1.46479E+07
 -1        50-2.04682E+06-5.63395E+05-2.91215E+08 2.28387E+05 6.14012E+06-1.06344E+07
 -1        51-1.31098E+06 3.37717E+05-3.96948E+08 6.91680E+04 3.23601E+06-5.44433E+06
 -1        52-3.72769E+06-9.08667E+05-3.80914E+08 5.42442E+05-1.54685E+06 2.68460E+06
 -1        53-1.30483E+06 3.40386E+05-3.49079E+08 3.91395E+03-6.27517E+06 1.10491E+07
 -1        54-2.25791E+06-6.70924E+05-1.95767E+08 3.38686E+05-9.05622E+06 1.53724E+07
 -1        55-2.50281E+05-2.42337E+05-3.44850E+07 1.75177E+05-1.11555E+07 1.97471E+07
 -1        56 2.54260E+06 1.05687E+06 1.27764E+08-5.46731E+05-9.06561E+06 1.54307E+07
 -1        57 5.16484E+06 2.08087E+06 2.83888E+08-7.09312E+05-5.92041E+06 1.22488E+07
 -1        58-1.17766E+05-1.60110E+06 3.06476E+08 2.35235E+05-1.29640E+06-2.27857E+05
 -1        59-2.63959E+06-3.29790E+06 3.17388E+08 2.82077E+06 6.21814E+06-6.67072E+06
 -1        60 1.38633E+07 7.21621E+06 1.67750E+08-4.46640E+06 7.29126E+06-1.38829E+07
 -1        61 3.72789E+07 3.71038E+07 1.05766E+07-4.72214E+06 2.83401E+07-1.12592E+07
 -1        62-5.17266E+07-4.84803E+07-2.54637E+08 1.03068E+07-8.68059E+06-4.24052E+07
 -1        63 5.17266E+07 4.84803E+07 2.54637E+08-1.03068E+07-8.68059E+06-4.24052E+07
 -1        64-3.72789E+07-3.71038E+07-1.05766E+07 4.72214E+06 2.83401E+07-1.12592E+07
 -1        65-1.38633E+07-7.21621E+06-1.67750E+08 4.46640E+06 7.29126E+06-1.38829E+07
 -1        66 2.63959E+06 3.29790E+06-3.17388E+08-2.82077E+06 6.21814E+06-6.67072E+06
 -1        67 1.17766E+05 1.60110E+06-3.06476E+08-2.35235E+05-1.29640E+06-2.27857E+05
 -1        68-5.16484E+06-2.08087E+06-2.83888E+08 7.09312E+05-5.92041E+06 1.22488E+07
 -1        69-2.54260E+06-1.05687E+06-1.27764E+08 5.46731E+05-9.06561E+06 1.54307E+07
 -1        70 2.50281E+05 2.42337E+05 3.44850E+07-1.75177E+05-1.11555E+07 1.97471E+07
 -1        71 2.25791E+06 6.70924E+05 1.95767E+08-3.38686E+05-9.05622E+06 1.53724E+07
 -1        72 1.30483E+06-3.40386E+05 3.49079E+08-3.91395E+03-6.27517E+06 1.10491E+07
 -1        73 3.72769E+06 9.08667E+05 3.80914E+08-5.42442E+05-1.54685E+06 2.68460E+06
 -1        74 1.31098E+06-3.37717E+05 3.96948E+08-6.91680E+04 3.23601E+06-5.44433E+06
 -1        75 2.04682E+06 5.63395E+05 2.91215E+08-2.28387E+05 6.14012E+06-1.06344E+07
 -1        76 4.63075E+05-2.66393E+05 1.75283E+08-3.86517E+04 8.05013E+06-1.46479E+07
 -1        77-3.23442E+06-1.17896E+06 6.89206E+07 4.78898E+05 4.09254E+06-7.44762E+06
 -1        78-5.17266E+07-4.84803E+07-2.54637E+08-1.03068E+07 8.68059E+06-4.24052E+07
 -1        79 3.72789E+07 3.71038E+07 1.05766E+07 4.72214E+06-2.83401E+07-1.12592E+07
 -1        80 1.38633E+07 7.21621E+06 1.67750E+08 4.46640E+06-7.29126E+06-1.38829E+07
 -1        81-2.63959E+06-3.29790E+06 3.17388E+08-2.82077E+06-6.21814E+06-6.67072E+06
 -1        82-1.17766E+05-1.60110E+06 3.06476E+08-2.35235E+05 1.29640E+06-2.27857E+05
 -1        83 5.16484E+06 2.08087E+06 2.83888E+08 7.09312E+05 5.92041E+06 1.22488E+07
 -1        84 2.54260E+06 1.05687E+06 1.27764E+08 5.46731E+05 9.06561E+06 1.54307E+07
 -1        85-2.50281E+05-2.42337E+05-3.44850E+07-1.75177E+05 1.11555E+07 1.97471E+07
 -1        86-2.25791E+06-6.70924E+05-1.95767E+08-3.38686E+05 9.05622E+06 1.53724E+07
 -1        87-1.30483E+06 3.40386E+05-3.49079E+08-3.91395E+03 6.27517E+06 1.10491E+07
 -1        88-3.72769E+06-9.08667E+05-3.80914E+08-5.42442E+05 1.54685E+06 2.68460E+06
 -1        89-1.31098E+06 3.37717E+05-3.96948E+08-6.91680E+04-3.23601E+06-5.44433E+06
 -1        90-2.04682E+06-5.63395E+05-2.91215E+08-2.28387E+05-6.14012E+06-1.06344E+07
 -1        91-4.63075E+05 2.66393E+05-1.75283E+08-3.86517E+04-8.05013E+06-1.46479E+07
 -1        92 3.23442E+06 1.17896E+06-6.89206E+07 4.78898E+05-4.09254E+06-7.44762E+06
 -1        93 4.09782E-07-1.34110E-07 1.65775E-06 5.83831E+06 6.29501E-07-6.12732E+07
 -1        94-4.11513E+07-6.16014E+07-2.34074E+08 1.51340E-07-2.03884E-06-1.00592E+08
 -1        95-4.09782E-08 1.17347E-07 1.14925E-06 2.44239E-07-3.90864E-08-7.58617E+07
 -1        96 4.11513E+07 6.16014E+07 2.34074E+08 5.71832E-07 2.52348E-06-1.00592E+08
 -1        97 2.90573E-07 5.17815E-07 3.05474E-07-5.83831E+06 3.62343E-08-6.12732E+07
 -1        98-1.46544E-06-3.30561E-07-1.34110E-07-3.67975E+06-1.20603E-06-1.09355E+07
 -1        99 4.82701E+06 8.41446E+06 9.43430E+06-1.55042E-06-8.35134E-07-3.95325E+06
 -1       100-5.32693E-06 1.04570E-06-5.93718E-07-5.62053E-07-1.36845E-06-7.99637E+06
 -1       101-4.82701E+06-8.41446E+06-9.43430E+06-7.37142E-07-1.25344E-06-3.95325E+06
 -1       102-5.43892E-06-1.73884E-06-1.98651E-06 3.67975E+06 4.17262E-07-1.09355E+07
 -1       103-1.42865E-06-6.50063E-07 1.38953E-06 1.24151E+07 4.48548E-07-1.16607E+08
 -1       104 6.68401E+06 1.40434E+07 1.35502E+06-3.39178E+06 1.32715E+07-8.85165E+07
 -1       105-3.98234E-06-1.66334E-06 5.65313E-07-2.06143E+06 1.21829E-07-1.65774E+08
 -1       106-6.68401E+06-1.40434E+07-1.35502E+06-3.39178E+06-1.32715E+07-8.85165E+07
 -1       107-2.65148E-06-2.05822E-07 1.62981E-07-4.62360E+06 5.76256E-08-1.05155E+08
 -1       108 6.74556E+06-5.75546E+04 1.56464E+08 1.69378E+06 2.71697E+06-3.02508E+07
 -1       109 4.70318E-08 1.82205E-06 6.05360E-08 5.66780E+05 2.30444E-07-5.38309E+07
 -1       110-6.74556E+06 5.75546E+04-1.56464E+08 1.69378E+06-2.71697E+06-3.02508E+07
 -1       111 1.56835E-06 2.79467E-06 1.79838E-06-1.71740E+06 1.02242E-07 9.96621E+06
 -1       112 3.88296E+06 3.29745E+05 1.38529E+08-1.43768E+06-2.42871E+06 4.02231E+07
 -1       113 1.99920E-06 3.42261E-06 2.49036E-06-2.16605E+06 6.32834E-07 6.81973E+07
 -1       114-3.88296E+06-3.29745E+05-1.38529E+08-1.43768E+06 2.42871E+06 4.02231E+07
 -1       115-3.58210E-07 9.33069E-07 2.55695E-06-1.29024E+06 2.58908E-07 9.83404E+07
 -1       116 3.52730E+05 6.44718E+04-1.70844E+07 1.49044E+05-4.62287E+06 7.15716E+07
 -1       117-4.36557E-07-7.43195E-07 3.17604E-06 1.22910E+05-9.50240E-07 1.23396E+08
 -1       118-3.52730E+05-6.44718E+04 1.70844E+07 1.49044E+05 4.62287E+06 7.15716E+07
 -1       119 6.36559E-07 1.49710E-07 2.36230E-06 1.03193E+06-4.53321E-07 9.86831E+07
 -1       120-2.64998E+06 5.02195E+05-1.71685E+08 6.91084E+05-2.58845E+06 4.05876E+07
 -1       121-1.46148E-06 2.98023E-07 1.55764E-06 1.37825E+06 4.42320E-07 7.01261E+07
 -1       122 2.64998E+06-5.02195E+05 1.71685E+08 6.91084E+05 2.58845E+06 4.05876E+07
 -1       123-2.21422E-07 7.01868E-07 2.15322E-06 1.91943E+06 1.44792E-07 1.72597E+07
 -1       124-2.79040E+06 3.93478E+05-1.95786E+08 7.04633E+05 1.33887E+06-2.09885E+07
 -1       125-1.54600E-07-5.34637E-07 5.71832E-07 1.34010E+06-6.33183E-07-3.65327E+07
 -1       126 2.79040E+06-3.93478E+05 1.95786E+08 7.04633E+05-1.33887E+06-2.09885E+07
 -1       127-7.09668E-07-1.23482E-06-8.99658E-07 8.49416E+05 6.59027E-07-6.28948E+07
 -1       128-1.01162E+05 8.43262E+04-8.79812E+07 5.48825E+03 3.41477E+06-5.11725E+07
 -1       129-8.94070E-08 3.04193E-07 1.01700E-06-2.76752E+04 8.89413E-08-8.76970E+07
 -1       130 1.01162E+05-8.43262E+04 8.79812E+07 5.48825E+03-3.41477E+06-5.11725E+07
 -1       131 6.97561E-07-7.16769E-07 1.32388E-06-2.04617E+06-8.72416E-07-5.19877E+07
 -1       132 5.37191E+07 6.23615E+07 2.70553E+08-1.49477E-07 6.77211E-06-4.93857E+07
 -1       133-3.66487E+07-2.69186E+07-5.61862E+06-8.10589E+05-2.01730E+07-2.60936E+06
 -1       134-3.60185E+07-1.67334E+07-6.60681E+05-7.26664E-07 9.19076E-06 6.04043E+06
 -1       135-3.66487E+07-2.69186E+07-5.61862E+06 8.10589E+05 2.01730E+07-2.60936E+06
 -1       136-1.48465E+07-8.07061E+06-1.76069E+08 4.65661E-08 5.41098E-06-5.92097E+06
 -1       137 3.15127E+06-4.53495E+06-3.22101E+08 2.58034E+04-5.62987E+06-5.53051E+06
 -1       138 3.66296E+06-1.23678E+07-3.26814E+08 5.43427E-07 1.38907E-06-4.39030E+06
 -1       139 3.15127E+06-4.53495E+06-3.22101E+08-2.58034E+04 5.62987E+06-5.53051E+06
 -1       140 3.76191E+05-1.11090E+07-3.17693E+08 6.64208E-07-2.92365E-06-9.21000E+05
 -1       141-5.10696E+06-6.35512E+06-2.88693E+08-4.27818E+05 6.27582E+06 9.84954E+06
 -1       142-5.04909E+06-1.06294E+07-2.93497E+08 9.25182E-07-6.87223E-06 7.45031E+06
 -1       143-5.10696E+06-6.35512E+06-2.88693E+08 4.27818E+05-6.27582E+06 9.84954E+06
 -1       144-2.53326E+06-5.58381E+06-1.32605E+08-4.47617E-08-7.74115E-06 8.70869E+06
 -1       145 2.94967E+05 4.98869E+04 3.45561E+07 3.43142E+04 1.13081E+07 1.54339E+07
 -1       146 3.39653E+05-1.42564E+05 3.46271E+07-6.25907E-07-9.01893E-06 1.11206E+07
 -1       147 2.94967E+05 4.98869E+04 3.45561E+07-3.43142E+04-1.13081E+07 1.54339E+07
 -1       148 2.09704E+06 4.82605E+06 2.00166E+08-2.21131E-07-7.82963E-06 8.56549E+06
 -1       149 1.33662E+06 4.14789E+06 3.53639E+08 3.51079E+05 6.41065E+06 8.62907E+06
 -1       150 1.36841E+06 8.63617E+06 3.58199E+08 3.17363E-07-7.54721E-06 6.20904E+06
 -1       151 1.33662E+06 4.14789E+06 3.53639E+08-3.51079E+05-6.41065E+06 8.62907E+06
 -1       152 3.33011E+06 9.49116E+06 3.89710E+08 4.54966E-07-8.16723E-06 1.44365E+06
 -1       153 1.26090E+06 3.97271E+06 4.01526E+08 4.18472E+05-3.41462E+06-4.23966E+06
 -1       154 1.21082E+06 8.28314E+06 4.06103E+08 4.26837E-07-8.01985E-06-3.03498E+06
 -1       155 1.26090E+06 3.97271E+06 4.01526E+08-4.18472E+05 3.41462E+06-4.23966E+06
 -1       156 2.04389E+06 3.75150E+06 2.95186E+08 8.60542E-07-5.32204E-06-6.09826E+06
 -1       157 3.20757E+05-1.63437E+06 1.74047E+08-5.51828E+04-8.18989E+06-1.15912E+07
 -1       158 1.78440E+05-3.00234E+06 1.72811E+08-8.73115E-10-3.21865E-06-8.53446E+06
 -1       159 3.20757E+05-1.63437E+06 1.74047E+08 5.51828E+04 8.18989E+06-1.15912E+07
 -1       160-3.42823E+06-1.09469E+07 6.67867E+07-4.47151E-07-2.22260E-06-4.14728E+06
 -1       161-3.79980E-07-7.61822E-07-4.73112E-07-1.24151E+07 2.79397E-09-1.16607E+08
 -1       162-6.68401E+06-1.40434E+07-1.35502E+06 3.39178E+06 1.32715E+07-8.85165E+07
 -1       163-7.78586E-07-7.27363E-07 1.13063E-06 2.06143E+06 3.99712E-07-1.65774E+08
 -1       164 6.68401E+06 1.40434E+07 1.35502E+06 3.39178E+06-1.32715E+07-8.85165E+07
 -1       165 8.65199E-07 6.79865E-08 1.95764E-06 4.62360E+06-1.32248E-07-1.05155E+08
 -1       166-6.74556E+06 5.75546E+04-1.56464E+08-1.69378E+06 2.71697E+06-3.02508E+07
 -1       167-5.57397E-07-1.56325E-06-2.51457E-08-5.66780E+05 4.63915E-08-5.38309E+07
 -1       168 6.74556E+06-5.75546E+04 1.56464E+08-1.69378E+06-2.71697E+06-3.02508E+07
 -1       169-2.13739E-06-5.67292E-07 1.29733E-06 1.71740E+06 2.44647E-07 9.96621E+06
 -1       170-3.88296E+06-3.29745E+05-1.38529E+08 1.43768E+06-2.42871E+06 4.02231E+07
 -1       171-9.89821E-07 8.64733E-07 2.62237E-06 2.16605E+06 7.27596E-08 6.81973E+07
 -1       172 3.88296E+06 3.29745E+05 1.38529E+08 1.43768E+06 2.42871E+06 4.02231E+07
 -1       173-4.21016E-07 1.42842E-07 6.29574E-07 1.29024E+06 4.26546E-07 9.83404E+07
 -1       174-3.52730E+05-6.44718E+04 1.70844E+07-1.49044E+05-4.62287E+06 7.15716E+07
 -1       175-6.40284E-07 1.21538E-07 5.98840E-07-1.22910E+05-2.37138E-07 1.23396E+08
 -1       176 3.52730E+05 6.44718E+04-1.70844E+07-1.49044E+05 4.62287E+06 7.15716E+07
 -1       177-8.69739E-07 4.77885E-07 1.18371E-06-1.03193E+06-7.26664E-07 9.86831E+07
 -1       178 2.64998E+06-5.02195E+05 1.71685E+08-6.91084E+05-2.58845E+06 4.05876E+07
 -1       179-6.30505E-07 9.72825E-07 1.49384E-06-1.37825E+06-5.86093E-07 7.01261E+07
 -1       180-2.64998E+06 5.02195E+05-1.71685E+08-6.91084E+05 2.58845E+06 4.05876E+07
 -1       181-2.57278E-06-7.48201E-07 2.94298E-07-1.91943E+06-3.78350E-10 1.72597E+07
 -1       182 2.79040E+06-3.93478E+05 1.95786E+08-7.04633E+05 1.33887E+06-2.09885E+07
 -1       183-2.38512E-06-1.31223E-06 8.18633E-07-1.34010E+06 2.59199E-07-3.65327E+07
 -1       184-2.79040E+06 3.93478E+05-1.95786E+08-7.04633E+05-1.33887E+06-2.09885E+07
 -1       185-1.24332E-06-1.47033E-07-3.44589E-08-8.49416E+05 4.38537E-07-6.28948E+07
 -1       186 1.01162E+05-8.43262E+04 8.79812E+07-5.48825E+03 3.41477E+06-5.11725E+07
 -1       187 7.99308E-07 1.51014E-06 1.35880E-06 2.76752E+04-5.82600E-07-8.76970E+07
 -1       188-1.01162E+05 8.43262E+04-8.79812E+07-5.48825E+03-3.41477E+06-5.11725E+07
 -1       189-8.73348E-07-3.09781E-07 1.02073E-06 2.04617E+06-8.78936E-09-5.19877E+07
 -1       190-5.37191E+07-6.23615E+07-2.70553E+08 3.22703E-07-6.12903E-06-4.93857E+07
 -1       191 3.66487E+07 2.69186E+07 5.61862E+06 8.10589E+05-2.01730E+07-2.60936E+06
 -1       192 3.60185E+07 1.67334E+07 6.60681E+05 3.51807E-07-7.97072E-06 6.04043E+06
 -1       193 3.66487E+07 2.69186E+07 5.61862E+06-8.10589E+05 2.01730E+07-2.60936E+06
 -1       194 1.48465E+07 8.07061E+06 1.76069E+08 4.80330E-07-5.06267E-06-5.92097E+06
 -1       195-3.15127E+06 4.53495E+06 3.22101E+08-2.58034E+04-5.62987E+06-5.53051E+06
 -1       196-3.66296E+06 1.23678E+07 3.26814E+08 6.35511E-07-1.50246E-06-4.39030E+06
 -1       197-3.15127E+06 4.53495E+06 3.22101E+08 2.58034E+04 5.62987E+06-5.53051E+06
 -1       198-3.76191E+05 1.11090E+07 3.17693E+08 3.68338E-07 1.93785E-06-9.21000E+05
 -1       199 5.10696E+06 6.35512E+06 2.88693E+08 4.27818E+05 6.27582E+06 9.84954E+06
 -1       200 5.04909E+06 1.06294E+07 2.93497E+08-3.20142E-09 4.84078E-06 7.45031E+06
 -1       201 5.10696E+06 6.35512E+06 2.88693E+08-4.27818E+05-6.27582E+06 9.84954E+06
 -1       202 2.53326E+06 5.58381E+06 1.32605E+08 5.30708E-07 6.22403E-06 8.70869E+06
 -1       203-2.94967E+05-4.98869E+04-3.45561E+07-3.43142E+04 1.13081E+07 1.54339E+07
 -1       204-3.39653E+05 1.42564E+05-3.46271E+07 1.28767E-06 7.32532E-06 1.11206E+07
 -1       205-2.94967E+05-4.98869E+04-3.45561E+07 3.43142E+04-1.13081E+07 1.54339E+07
 -1       206-2.09704E+06-4.82605E+06-2.00166E+08 1.55531E-07 7.87526E-06 8.56549E+06
 -1       207-1.33662E+06-4.14789E+06-3.53639E+08-3.51079E+05 6.41065E+06 8.62907E+06
 -1       208-1.36841E+06-8.63617E+06-3.58199E+08-1.00223E-06 9.56259E-06 6.20904E+06
 -1       209-1.33662E+06-4.14789E+06-3.53639E+08 3.51079E+05-6.41065E+06 8.62907E+06
 -1       210-3.33011E+06-9.49116E+06-3.89710E+08-3.65631E-07 9.26619E-06 1.44365E+06
 -1       211-1.26090E+06-3.97271E+06-4.01526E+08-4.18472E+05-3.41462E+06-4.23966E+06
 -1       212-1.21082E+06-8.28314E+06-4.06103E+08-6.40284E-10 7.46152E-06-3.03498E+06
 -1       213-1.26090E+06-3.97271E+06-4.01526E+08 4.18472E+05 3.41462E+06-4.23966E+06
 -1       214-2.04389E+06-3.75150E+06-2.95186E+08-1.17347E-06 5.47385E-06-6.09826E+06
 -1       215-3.20757E+05 1.63437E+06-1.74047E+08 5.51828E+04-8.18989E+06-1.15912E+07
 -1       216-1.78440E+05 3.00234E+06-1.72811E+08-7.12462E-08 3.13995E-06-8.53446E+06
 -1       217-3.20757E+05 1.63437E+06-1.74047E+08-5.51828E+04 8.18989E+06-1.15912E+07
 -1       218 3.42823E+06 1.09469E+07-6.67867E+07-6.71658E-07 1.00210E-06-4.14728E+06
 -1       219 1.17347E-06 3.58559E-07 1.48546E-06-1.62050E-07 6.28352E-07-1.06423E+08
 -1       220-5.53206E-07-4.47035E-07 1.52271E-06 1.85012E+06 3.13856E-07-1.42266E+08
 -1       221 5.13021E+06 3.32078E+06-4.47058E+06-1.19209E-07-3.62122E-06-5.63590E+07
 -1       222 2.13552E-06 9.04780E-07 2.38698E-06-6.09085E-07 3.92552E-07-1.18758E+08
 -1       223-5.13021E+06-3.32078E+06 4.47058E+06-6.77072E-07 4.62355E-06-5.63590E+07
 -1       224 3.07336E-07 1.56462E-07 1.70991E-06-1.85012E+06 3.39409E-07-1.42266E+08
 -1       225 2.43960E-06 1.93715E-07 1.86823E-06-8.25268E-07 2.79397E-07-7.36483E+07
 -1       226 6.65197E-07 3.02345E-07 5.41564E-07-2.22819E+06-5.22705E-08-4.50093E+07
 -1       227 6.79298E+06 8.48916E+06 1.62998E+08-7.53207E-07-9.27597E-07-2.02890E+07
 -1       228 2.32831E-06-1.00197E-06 1.18138E-06-1.05787E-06-3.83399E-07-3.61877E+07
 -1       229-6.79298E+06-8.48916E+06-1.62998E+08 2.84752E-07 4.87547E-07-2.02890E+07
 -1       230 1.40863E-06-1.17492E-06 6.57514E-07 2.22819E+06-1.92726E-07-4.50093E+07
 -1       231 1.43121E-06-1.04615E-06 1.63959E-06-8.50996E-07-9.73159E-07 7.25842E+06
 -1       232 1.61154E-06 1.30502E-06 1.79885E-06-1.88455E+06-2.09315E-07 5.63685E+07
 -1       233 3.50690E+06 4.92315E+06 1.44715E+08-5.11762E-07 1.84879E-06 2.59949E+07
 -1       234 2.18133E-06-8.48464E-07 1.35222E-06-5.22705E-07-9.27452E-07 4.45396E+07
 -1       235-3.50690E+06-4.92315E+06-1.44715E+08 4.50062E-07-3.79176E-06 2.59949E+07
 -1       236 1.07457E-06-9.86620E-09 2.10979E-06 1.88455E+06-3.65311E-07 5.63685E+07
 -1       237 1.57926E-06-9.05129E-08 2.47080E-06-5.75179E-07-6.59144E-07 6.44809E+07
 -1       238-2.12807E-07-6.68457E-07 2.36323E-06-1.79530E+04-2.81841E-07 1.02095E+08
 -1       239 3.29360E+05 2.67553E+05-1.71414E+07 5.89062E-07 3.55137E-06 4.59574E+07
 -1       240 8.05827E-07 2.75322E-07 1.89594E-06-1.62341E-07 6.81030E-09 8.07941E+07
 -1       241-3.29360E+05-2.67553E+05 1.71414E+07-4.20492E-07-4.39119E-06 4.59574E+07
 -1       242 4.80097E-07 6.32950E-07 1.42050E-06 1.79530E+04-3.05066E-07 1.02095E+08
 -1       243-1.59338E-06-8.35629E-07 9.65549E-07-4.94765E-08-4.93019E-07 6.46903E+07
 -1       244-2.15578E-06-4.56348E-08 1.38511E-06 1.72542E+06-2.05415E-07 5.79830E+07
 -1       245-2.53300E+06-4.32886E+06-1.77536E+08-7.04546E-07 4.61109E-06 2.60245E+07
 -1       246-4.40452E-06-1.83334E-06 4.31901E-07-2.18512E-07-1.72586E-08 4.58399E+07
 -1       247 2.53300E+06 4.32886E+06 1.77536E+08 1.43598E-07-3.62063E-06 2.60245E+07
 -1       248-3.29467E-06-1.15234E-06 5.72531E-07-1.72542E+06 1.16241E-07 5.79830E+07
 -1       249-1.44518E-06-4.73519E-08 6.65663E-07 6.09143E-07 3.86528E-07 1.10804E+07
 -1       250 6.17467E-07 1.18883E-06 1.05705E-06 1.68940E+06 1.72178E-07-3.03565E+07
 -1       251-2.57913E+06-4.24117E+06-2.01606E+08-3.81260E-08 3.98816E-06-1.36076E+07
 -1       252 2.39571E-06 2.21306E-06 2.55450E-06 9.81556E-07 7.31729E-07-2.41802E+07
 -1       253 2.57913E+06 4.24117E+06 2.01606E+08 1.23278E-06-3.53553E-06-1.36076E+07
 -1       254 5.08036E-07 1.00757E-07 2.19268E-06-1.68940E+06 3.72587E-07-3.03565E+07
 -1       255 5.03962E-07 6.40925E-07 1.59943E-06 8.61502E-07 3.36935E-07-4.19368E+07
 -1       256-3.69502E-07-4.08152E-07 5.77420E-08-1.21510E+05-1.59489E-08-7.30581E+07
 -1       257 8.67319E+04 1.50440E+06-8.66171E+07 1.05629E-06 1.45903E-06-3.34769E+07
 -1       258 5.14672E-07-3.49886E-07-2.58442E-07 1.37006E-06-1.19529E-07-5.84192E+07
 -1       259-8.67319E+04-1.50440E+06 8.66171E+07 2.77709E-07-1.61771E-06-3.34769E+07
 -1       260 1.23936E-06 9.65432E-07 8.71718E-07 1.21510E+05-3.50410E-07-7.30581E+07
 -1       261-8.16770E-07 7.68079E-07-8.72416E-07 6.14615E-07-5.26255E-07-3.38034E+07
 -3
    1PSTEP                        15           1           1          
    1PGM                1.000000E+00                                  
    1PGK                2.590512E+06                                  
    1PHID                         -1                                  
    1PSUBC                         0                                  
    1PMODE                         8                                  
  100CL  108 2.56161E+02         261                     2    8MODAL      1
 -4  DISP        4    1
 -5  D1          1    2    1    0
 -5  D2          1    2    2    0
 -5  D3          1    2    3    0
 -5  ALL         1    2    0    0    1ALL
 -1         1 0.00000E+00 0.00000E+00 0.00000E+00
 -1         2 0.00000E+00 0.00000E+00 0.00000E+00
 -1         3 0.00000E+00 0.00000E+00 0.00000E+00
 -1         4 0.00000E+00 0.00000E+00 0.00000E+00
 -1         5-1.03393E-05 5.46592E-03 3.50618E-03
 -1         6 1.03393E-05 5.46592E-03 3.50618E-03
 -1         7-1.03393E-05 5.46592E-03-3.50618E-03
 -1         8 1.03393E-05 5.46592E-03-3.50618E-03
 -1         9 0.00000E+00 0.00000E+00 0.00000E+00
 -1        10 0.00000E+00 0.00000E+00 0.00000E+00
 -1        11 0.00000E+00 0.00000E+00 0.00000E+00
 -1        12 0.00000E+00 0.00000E+00 0.00000E+00
 -1        13 0.00000E+00 0.00000E+00 0.00000E+00
 -1        14 0.00000E+00 0.00000E+00 0.00000E+00
 -1        15 0.00000E+00 0.00000E+00 0.00000E+00
 -1        16 0.00000E+00 0.00000E+00 0.00000E+00
 -1        17 0.00000E+00 0.00000E+00 0.00000E+00
 -1        18 0.00000E+00 0.00000E+00 0.00000E+00
 -1        19 0.00000E+00 0.00000E+00 0.00000E+00
 -1        20 0.00000E+00 0.00000E+00 0.00000E+00
 -1        21-4.73030E-06 5.46763E-03 3.52562E-03
 -1        22 2.84928E-16 5.47167E-03 3.53175E-03
 -1        23 4.73030E-06 5.46763E-03 3.52562E-03
 -1        24 7.96500E-06 5.44338E-03 1.72216E-03
 -1        25 1.72795E-17 5.40969E-03 1.30104E-17
 -1        26-7.96500E-06 5.44338E-03-1.72216E-03
 -1        27-4.73030E-06 5.46763E-03-3.52562E-03
 -1        28-2.82326E-16 5.47167E-03-3.53175E-03
 -1        29 4.73030E-06 5.46763E-03-3.52562E-03
 -1        30 7.96500E-06 5.44338E-03-1.72216E-03
 -1        31 4.87891E-18 5.40969E-03 3.12250E-17
 -1        32-7.96500E-06 5.44338E-03 1.72216E-03
 -1        33-2.39650E-04 1.21047E-03 8.81999E-04
 -1        34 6.93564E-05 2.68902E-03 1.22691E-03
 -1        35 1.75195E-04 4.07759E-03 8.62855E-04
 -1        36 2.71022E-04 4.72736E-03 1.04802E-04
 -1        37 2.71019E-04 4.57318E-03-8.07272E-04
 -1        38 2.11635E-04 3.52706E-03-1.63951E-03
 -1        39 9.15949E-05 1.82041E-03-2.14088E-03
 -1        40-5.64118E-05-2.03131E-04-2.22084E-03
 -1        41-2.00847E-04-2.08739E-03-1.77071E-03
 -1        42-3.07883E-04-3.40351E-03-9.22524E-04
 -1        43-3.57672E-04-3.84522E-03 2.06900E-04
 -1        44-3.39633E-04-3.26377E-03 1.39037E-03
 -1        45-2.64754E-04-1.74773E-03 2.39301E-03
 -1        46-1.56270E-04 4.60545E-04 3.11595E-03
 -1        47-5.80095E-05 2.98029E-03 3.43996E-03
 -1        48 5.80095E-05 2.98029E-03 3.43996E-03
 -1        49 1.56270E-04 4.60545E-04 3.11595E-03
 -1        50 2.64754E-04-1.74773E-03 2.39301E-03
 -1        51 3.39633E-04-3.26377E-03 1.39037E-03
 -1        52 3.57672E-04-3.84522E-03 2.06900E-04
 -1        53 3.07883E-04-3.40351E-03-9.22524E-04
 -1        54 2.00847E-04-2.08739E-03-1.77071E-03
 -1        55 5.64118E-05-2.03131E-04-2.22084E-03
 -1        56-9.15949E-05 1.82041E-03-2.14088E-03
 -1        57-2.11635E-04 3.52706E-03-1.63951E-03
 -1        58-2.71019E-04 4.57318E-03-8.07272E-04
 -1        59-2.71022E-04 4.72736E-03 1.04802E-04
 -1        60-1.75195E-04 4.07759E-03 8.62855E-04
 -1        61-6.93564E-05 2.68902E-03 1.22691E-03
 -1        62 2.39650E-04 1.21047E-03 8.81999E-04
 -1        63 2.39650E-04 1.21047E-03-8.81999E-04
 -1        64-6.93564E-05 2.68902E-03-1.22691E-03
 -1        65-1.75195E-04 4.07759E-03-8.62855E-04
 -1        66-2.71022E-04 4.72736E-03-1.04802E-04
 -1        67-2.71019E-04 4.57318E-03 8.07272E-04
 -1        68-2.11635E-04 3.52706E-03 1.63951E-03
 -1        69-9.15949E-05 1.82041E-03 2.14088E-03
 -1        70 5.64118E-05-2.03131E-04 2.22084E-03
 -1        71 2.00847E-04-2.08739E-03 1.77071E-03
 -1        72 3.07883E-04-3.40351E-03 9.22524E-04
 -1        73 3.57672E-04-3.84522E-03-2.06900E-04
 -1        74 3.39633E-04-3.26377E-03-1.39037E-03
 -1        75 2.64754E-04-1.74773E-03-2.39301E-03
 -1        76 1.56270E-04 4.60545E-04-3.11595E-03
 -1        77 5.80095E-05 2.98029E-03-3.43996E-03
 -1        78-2.39650E-04 1.21047E-03-8.81999E-04
 -1        79 6.93564E-05 2.68902E-03-1.22691E-03
 -1        80 1.75195E-04 4.07759E-03-8.62855E-04
 -1        81 2.71022E-04 4.72736E-03-1.04802E-04
 -1        82 2.71019E-04 4.57318E-03 8.07272E-04
 -1        83 2.11635E-04 3.52706E-03 1.63951E-03
 -1        84 9.15949E-05 1.82041E-03 2.14088E-03
 -1        85-5.64118E-05-2.03131E-04 2.22084E-03
 -1        86-2.00847E-04-2.08739E-03 1.77071E-03
 -1        87-3.07883E-04-3.40351E-03 9.22524E-04
 -1        88-3.57672E-04-3.84522E-03-2.06900E-04
 -1        89-3.39633E-04-3.26377E-03-1.39037E-03
 -1        90-2.64754E-04-1.74773E-03-2.39301E-03
 -1        91-1.56270E-04 4.60545E-04-3.11595E-03
 -1        92-5.80095E-05 2.98029E-03-3.43996E-03
 -1        93 0.00000E+00 0.00000E+00 0.00000E+00
 -1        94 0.00000E+00 0.00000E+00 0.00000E+00
 -1        95 0.00000E+00 0.00000E+00 0.00000E+00
 -1        96 0.00000E+00 0.00000E+00 0.00000E+00
 -1        97 0.00000E+00 0.00000E+00 0.00000E+00
 -1        98 1.51138E-16 5.45110E-03 1.73974E-03
 -1        99 3.68629E-18 5.41107E-03 2.68882E-17
 -1       100 1.04761E-17 5.41850E-03 2.64545E-17
 -1       101 1.31612E-17 5.41107E-03 1.95156E-17
 -1       102-1.26852E-16 5.45110E-03-1.73974E-03
 -1       103-7.00395E-17 1.27703E-03 8.93820E-04
 -1       104-3.43535E-05 2.69508E-03 1.29719E-03
 -1       105-1.50054E-16 2.68665E-03 1.30969E-03
 -1       106 3.43535E-05 2.69508E-03 1.29719E-03
 -1       107-2.15106E-16 4.01045E-03 8.95501E-04
 -1       108-1.36860E-04 4.65420E-03 1.18583E-04
 -1       109-2.67147E-16 4.63985E-03 1.24969E-04
 -1       110 1.36860E-04 4.65420E-03 1.18583E-04
 -1       111-2.85362E-16 4.47639E-03-8.15673E-04
 -1       112-1.06310E-04 3.47266E-03-1.66456E-03
 -1       113-2.75821E-16 3.45691E-03-1.66605E-03
 -1       114 1.06310E-04 3.47266E-03-1.66456E-03
 -1       115-2.54137E-16 1.78777E-03-2.18266E-03
 -1       116 2.82576E-05-1.88569E-04-2.26340E-03
 -1       117-2.00361E-16-1.83297E-04-2.26502E-03
 -1       118-2.82576E-05-1.88569E-04-2.26340E-03
 -1       119-1.36609E-16-2.01877E-03-1.80985E-03
 -1       120 1.54703E-04-3.32190E-03-9.45156E-04
 -1       121-6.08237E-17-3.29769E-03-9.46482E-04
 -1       122-1.54703E-04-3.32190E-03-9.45156E-04
 -1       123 9.97466E-18-3.72248E-03 2.01856E-04
 -1       124 1.70638E-04-3.17439E-03 1.40395E-03
 -1       125 9.10730E-17-3.14743E-03 1.40382E-03
 -1       126-1.70638E-04-3.17439E-03 1.40395E-03
 -1       127 1.56992E-16-1.65824E-03 2.42163E-03
 -1       128 7.83052E-05 4.99528E-04 3.14675E-03
 -1       129 2.20310E-16 5.13426E-04 3.14762E-03
 -1       130-7.83052E-05 4.99528E-04 3.14675E-03
 -1       131 2.70617E-16 2.99890E-03 3.46773E-03
 -1       132-2.33103E-18 1.10777E-03 3.63208E-18
 -1       133 3.68276E-05 2.71418E-03 3.72883E-04
 -1       134-3.49655E-18 2.77141E-03 4.01155E-18
 -1       135-3.68276E-05 2.71418E-03-3.72883E-04
 -1       136-2.16840E-18 4.11885E-03 3.03577E-18
 -1       137 1.28066E-04 4.87600E-03 3.24417E-06
 -1       138 2.12097E-18 4.90081E-03 4.11997E-18
 -1       139-1.28066E-04 4.87600E-03-3.24417E-06
 -1       140 7.58942E-19 4.71914E-03 7.80626E-18
 -1       141 1.02884E-04 3.63456E-03-7.25462E-04
 -1       142 8.59230E-18 3.65859E-03 9.54098E-18
 -1       143-1.02884E-04 3.63456E-03 7.25462E-04
 -1       144 6.61363E-18 1.86466E-03 1.47451E-17
 -1       145-2.81545E-05-2.33489E-04-9.53730E-04
 -1       146 5.09575E-18-2.43137E-04 1.99493E-17
 -1       147 2.81545E-05-2.33489E-04 9.53730E-04
 -1       148 2.00577E-18-2.21081E-03 2.55872E-17
 -1       149-1.50200E-04-3.56595E-03-3.75469E-04
 -1       150 2.49366E-18-3.60394E-03 2.91650E-17
 -1       151 1.50200E-04-3.56595E-03 3.75469E-04
 -1       152-1.00289E-17-4.06226E-03 2.85145E-17
 -1       153-1.66129E-04-3.44549E-03 6.48514E-04
 -1       154-1.60191E-17-3.49145E-03 2.69966E-17
 -1       155 1.66129E-04-3.44549E-03-6.48514E-04
 -1       156-1.65747E-17-1.92393E-03 2.08167E-17
 -1       157-7.94719E-05 3.67101E-04 1.45686E-03
 -1       158-8.83625E-18 3.30949E-04 1.27936E-17
 -1       159 7.94719E-05 3.67101E-04-1.45686E-03
 -1       160-7.58942E-19 2.92211E-03 8.89046E-18
 -1       161 6.46184E-17 1.27703E-03-8.93820E-04
 -1       162-3.43535E-05 2.69508E-03-1.29719E-03
 -1       163 1.44849E-16 2.68665E-03-1.30969E-03
 -1       164 3.43535E-05 2.69508E-03-1.29719E-03
 -1       165 2.17274E-16 4.01045E-03-8.95501E-04
 -1       166-1.36860E-04 4.65420E-03-1.18583E-04
 -1       167 2.69750E-16 4.63985E-03-1.24969E-04
 -1       168 1.36860E-04 4.65420E-03-1.18583E-04
 -1       169 2.88831E-16 4.47639E-03 8.15673E-04
 -1       170-1.06310E-04 3.47266E-03 1.66456E-03
 -1       171 2.87097E-16 3.45691E-03 1.66605E-03
 -1       172 1.06310E-04 3.47266E-03 1.66456E-03
 -1       173 2.58474E-16 1.78777E-03 2.18266E-03
 -1       174 2.82576E-05-1.88569E-04 2.26340E-03
 -1       175 2.11636E-16-1.83297E-04 2.26502E-03
 -1       176-2.82576E-05-1.88569E-04 2.26340E-03
 -1       177 1.48536E-16-2.01877E-03 1.80985E-03
 -1       178 1.54703E-04-3.32190E-03 9.45156E-04
 -1       179 6.46184E-17-3.29769E-03 9.46482E-04
 -1       180-1.54703E-04-3.32190E-03 9.45156E-04
 -1       181-3.33934E-17-3.72248E-03-2.01856E-04
 -1       182 1.70638E-04-3.17439E-03-1.40395E-03
 -1       183-1.24466E-16-3.14743E-03-1.40382E-03
 -1       184-1.70638E-04-3.17439E-03-1.40395E-03
 -1       185-1.98626E-16-1.65824E-03-2.42163E-03
 -1       186 7.83052E-05 4.99528E-04-3.14675E-03
 -1       187-2.50668E-16 5.13426E-04-3.14762E-03
 -1       188-7.83052E-05 4.99528E-04-3.14675E-03
 -1       189-2.74086E-16 2.99890E-03-3.46773E-03
 -1       190 2.71051E-19 1.10777E-03 3.25261E-18
 -1       191 3.68276E-05 2.71418E-03-3.72883E-04
 -1       192-1.13841E-18 2.77141E-03 1.95156E-18
 -1       193-3.68276E-05 2.71418E-03 3.72883E-04
 -1       194-4.49944E-18 4.11885E-03 6.93889E-18
 -1       195 1.28066E-04 4.87600E-03-3.24417E-06
 -1       196 1.13841E-18 4.90081E-03 1.19262E-17
 -1       197-1.28066E-04 4.87600E-03 3.24417E-06
 -1       198 1.73472E-18 4.71914E-03 1.21431E-17
 -1       199 1.02884E-04 3.63456E-03 7.25462E-04
 -1       200 4.33681E-18 3.65859E-03 1.34441E-17
 -1       201-1.02884E-04 3.63456E-03-7.25462E-04
 -1       202 1.08420E-17 1.86466E-03 1.38778E-17
 -1       203-2.81545E-05-2.33489E-04 9.53730E-04
 -1       204 8.19250E-18-2.43137E-04 1.43115E-17
 -1       205 2.81545E-05-2.33489E-04-9.53730E-04
 -1       206 7.42678E-18-2.21081E-03 1.47451E-17
 -1       207-1.50200E-04-3.56595E-03 3.75469E-04
 -1       208-9.48677E-20-3.60394E-03 1.64257E-17
 -1       209 1.50200E-04-3.56595E-03-3.75469E-04
 -1       210-6.83047E-18-4.06226E-03 1.45283E-17
 -1       211-1.66129E-04-3.44549E-03-6.48514E-04
 -1       212-2.11419E-17-3.49145E-03 2.08167E-17
 -1       213 1.66129E-04-3.44549E-03 6.48514E-04
 -1       214-2.20093E-17-1.92393E-03 2.62377E-17
 -1       215-7.94719E-05 3.67101E-04-1.45686E-03
 -1       216-1.92446E-17 3.30949E-04 2.79724E-17
 -1       217 7.94719E-05 3.67101E-04 1.45686E-03
 -1       218-7.16251E-18 2.92211E-03 3.07913E-17
 -1       219-9.89334E-19 1.15716E-03 3.25261E-18
 -1       220-7.61110E-17 2.70750E-03 4.34161E-04
 -1       221-1.97867E-18 2.77326E-03 3.90313E-18
 -1       222-1.46367E-18 2.76349E-03 4.55365E-18
 -1       223-1.19262E-18 2.77326E-03 3.68629E-18
 -1       224 7.17742E-17 2.70750E-03-4.34161E-04
 -1       225-2.35814E-18 4.06789E-03 4.98733E-18
 -1       226-1.35308E-16 4.79248E-03 1.70474E-05
 -1       227 8.67362E-19 4.83460E-03 1.01915E-17
 -1       228 2.73761E-18 4.81729E-03 7.80626E-18
 -1       229 3.72356E-18 4.83460E-03 6.07153E-18
 -1       230 1.33574E-16 4.79248E-03-1.70474E-05
 -1       231 5.25838E-18 4.63649E-03 1.12757E-17
 -1       232-1.36176E-16 3.56724E-03-7.47977E-04
 -1       233 8.34836E-18 3.60800E-03 1.21431E-17
 -1       234 6.31209E-18 3.59216E-03 1.21431E-17
 -1       235 8.13300E-18 3.60800E-03 1.25767E-17
 -1       236 1.49620E-16 3.56724E-03 7.47977E-04
 -1       237 9.64940E-18 1.83745E-03 1.51788E-17
 -1       238-9.32414E-17-2.14517E-04-9.91364E-04
 -1       239 4.66207E-18-2.29432E-04 1.47451E-17
 -1       240 2.62919E-18-2.24949E-04 1.47451E-17
 -1       241 1.06794E-17-2.29432E-04 1.71304E-17
 -1       242 1.09938E-16-2.14517E-04 9.91364E-04
 -1       243 5.09575E-18-2.14716E-03 1.82146E-17
 -1       244-3.34409E-17-3.46518E-03-3.95643E-04
 -1       245-1.35525E-19-3.52884E-03 1.82688E-17
 -1       246 1.76183E-18-3.50613E-03 2.03830E-17
 -1       247 6.50521E-19-3.52884E-03 2.48282E-17
 -1       248 3.27429E-17-3.46518E-03 3.95643E-04
 -1       249-1.29562E-17-3.94937E-03 2.52619E-17
 -1       250 3.38271E-17-3.33376E-03 6.60416E-04
 -1       251-2.35272E-17-3.40808E-03 2.22261E-17
 -1       252-1.95698E-17-3.38220E-03 2.20093E-17
 -1       253-1.91633E-17-3.40808E-03 2.47198E-17
 -1       254-6.87384E-17-3.33376E-03-6.60416E-04
 -1       255-2.20093E-17-1.83863E-03 2.19009E-17
 -1       256 1.06035E-16 4.22049E-04 1.48395E-03
 -1       257-1.99764E-17 3.72510E-04 2.66714E-17
 -1       258-1.45046E-17 3.87204E-04 2.51535E-17
 -1       259-1.40404E-17 3.72510E-04 2.19009E-17
 -1       260-1.36176E-16 4.22049E-04-1.48395E-03
 -1       261-5.36680E-18 2.94189E-03 2.64545E-17
 -3
    1PSTEP                        16           1           1          
    1PGM                1.000000E+00                                  
    1PGK                2.590512E+06                                  
    1PHID                         -1                                  
    1PSUBC                         0                                  
    1PMODE                         8                                  
  100CL  108 2.56161E+02         261                     2    8MODAL      1
 -4  STRESS      6    1
 -5  SXX         1    4    1    1
 -5  SYY         1    4    2    2
 -5  SZZ         1    4    3    3
 -5  SXY         1    4    1    2
 -5  SYZ         1    4    2    3
 -5  SZX         1    4    3    1
 -1         1 1.42789E+08 1.81213E+08 5.50785E+08-1.23994E+07 1.54125E+08 7.97435E+07
 -1         2 1.42789E+08 1.81213E+08 5.50785E+08 1.23994E+07 1.54125E+08-7.97435E+07
 -1         3-1.42789E+08-1.81213E+08-5.50785E+08 1.23994E+07 1.54125E+08 7.97435E+07
 -1         4-1.42789E+08-1.81213E+08-5.50785E+08-1.23994E+07 1.54125E+08-7.97435E+07
 -1         5 1.39814E+06-8.92121E+06-1.99226E+07 2.66271E+04-7.72943E+05 2.11116E+04
 -1         6 1.39814E+06-8.92121E+06-1.99226E+07-2.66271E+04-7.72943E+05-2.11116E+04
 -1         7-1.39814E+06 8.92121E+06 1.99226E+07-2.66271E+04-7.72943E+05 2.11116E+04
 -1         8-1.39814E+06 8.92121E+06 1.99226E+07 2.66271E+04-7.72943E+05-2.11116E+04
 -1         9 1.40666E+08 1.78056E+08 5.46866E+08-2.55182E+06 1.65993E+08 3.82884E+07
 -1        10 1.38544E+08 1.74900E+08 5.42948E+08 1.02445E-07 1.77861E+08-9.75654E-06
 -1        11 1.40666E+08 1.78056E+08 5.46866E+08 2.55182E+06 1.65993E+08-3.82884E+07
 -1        12 5.39311E+07 6.28120E+07 2.44974E+08 1.31748E+07 1.34170E+08-3.98140E+07
 -1        13 6.66827E-07 4.32134E-07 2.28733E-06 1.39502E+07 1.14215E+08 4.05125E-08
 -1        14-5.39311E+07-6.28120E+07-2.44974E+08 1.31748E+07 1.34170E+08 3.98140E+07
 -1        15-1.40666E+08-1.78056E+08-5.46866E+08 2.55182E+06 1.65993E+08 3.82884E+07
 -1        16-1.38544E+08-1.74900E+08-5.42948E+08-6.65896E-08 1.77861E+08 8.44570E-06
 -1        17-1.40666E+08-1.78056E+08-5.46866E+08-2.55182E+06 1.65993E+08-3.82884E+07
 -1        18-5.39311E+07-6.28120E+07-2.44974E+08-1.31748E+07 1.34170E+08-3.98140E+07
 -1        19 1.11386E-06 1.40071E-06 3.34531E-06-1.39502E+07 1.14215E+08-2.97587E-08
 -1        20 5.39311E+07 6.28120E+07 2.44974E+08-1.31748E+07 1.34170E+08 3.98140E+07
 -1        21 2.61644E+05-9.11550E+06-2.10562E+07 2.84011E+05-1.25839E+06 1.46333E+05
 -1        22-8.74848E+05-9.30979E+06-2.21898E+07 3.83478E-06-1.74384E+06-3.79121E-06
 -1        23 2.61644E+05-9.11550E+06-2.10562E+07-2.84011E+05-1.25839E+06-1.46333E+05
 -1        24-5.11932E+05-1.20688E+07-7.69521E+06-7.65413E+05 9.83016E+06-1.57476E+05
 -1        25 3.11853E-06 1.40071E-06 4.40143E-06-1.50420E+06 2.04333E+07 1.76439E-06
 -1        26 5.11932E+05 1.20688E+07 7.69521E+06-7.65413E+05 9.83016E+06 1.57476E+05
 -1        27-2.61644E+05 9.11550E+06 2.10562E+07-2.84011E+05-1.25839E+06 1.46333E+05
 -1        28 8.74848E+05 9.30979E+06 2.21898E+07-5.57664E-06-1.74384E+06 4.01895E-07
 -1        29-2.61644E+05 9.11550E+06 2.10562E+07 2.84011E+05-1.25839E+06-1.46333E+05
 -1        30 5.11932E+05 1.20688E+07 7.69521E+06 7.65413E+05 9.83016E+06-1.57476E+05
 -1        31-3.90923E-06 7.47852E-06 4.84288E-07 1.50420E+06 2.04333E+07-1.18191E-06
 -1        32-5.11932E+05-1.20688E+07-7.69521E+06 7.65413E+05 9.83016E+06 1.57476E+05
 -1        33 3.44270E+07 6.30700E+07 2.57260E+08 7.07338E+06 7.85148E+07-8.20581E+06
 -1        34-3.24400E+07-3.95495E+07-4.38237E+07-3.43707E+06 1.85627E+07 2.43289E+07
 -1        35-2.22408E+05-1.99223E+07-2.18410E+08-3.07808E+06 1.74318E+07-2.22480E+06
 -1        36-1.70862E+06-4.93367E+06-3.81872E+08 1.35094E+06 8.68627E+06 4.86524E+06
 -1        37 3.89016E+05-4.61637E+06-3.49650E+08-1.67139E+05-1.97586E+06-6.13150E+05
 -1        38-1.27254E+06-9.10046E+06-3.06311E+08-5.70719E+05-1.95667E+07-2.07140E+06
 -1        39-5.15010E+05-4.71564E+06-1.16127E+08-4.34539E+05-2.45884E+07-3.35780E+06
 -1        40-9.43232E+04 6.79887E+05 7.98445E+07 1.59713E+05-3.00339E+07-3.45621E+06
 -1        41 6.15051E+05 4.75661E+06 2.65701E+08 3.17990E+05-2.30957E+07-2.76749E+06
 -1        42-7.17081E+05 5.04642E+06 4.40388E+08 2.48821E+05-1.60000E+07-1.92087E+06
 -1        43 1.08884E+06 8.23390E+06 4.72401E+08 5.20067E+05-3.57229E+06-3.56282E+05
 -1        44-7.10935E+05 4.70886E+06 4.84024E+08 3.11291E+05 8.86518E+06 1.26642E+06
 -1        45 4.96086E+05 3.50924E+06 3.57078E+08 1.60570E+05 1.66136E+07 2.34013E+06
 -1        46-2.34742E+04 9.34584E+05 2.18917E+08-4.18154E+04 2.24748E+07 2.96840E+06
 -1        47-1.15202E+06-6.38353E+06 8.83472E+07-1.84694E+05 1.03365E+07 1.28336E+06
 -1        48-1.15202E+06-6.38353E+06 8.83472E+07 1.84694E+05 1.03365E+07-1.28336E+06
 -1        49-2.34742E+04 9.34584E+05 2.18917E+08 4.18154E+04 2.24748E+07-2.96840E+06
 -1        50 4.96086E+05 3.50924E+06 3.57078E+08-1.60570E+05 1.66136E+07-2.34013E+06
 -1        51-7.10935E+05 4.70886E+06 4.84024E+08-3.11291E+05 8.86518E+06-1.26642E+06
 -1        52 1.08884E+06 8.23390E+06 4.72401E+08-5.20067E+05-3.57229E+06 3.56282E+05
 -1        53-7.17081E+05 5.04642E+06 4.40388E+08-2.48821E+05-1.60000E+07 1.92087E+06
 -1        54 6.15051E+05 4.75661E+06 2.65701E+08-3.17990E+05-2.30957E+07 2.76749E+06
 -1        55-9.43232E+04 6.79887E+05 7.98445E+07-1.59713E+05-3.00339E+07 3.45621E+06
 -1        56-5.15010E+05-4.71564E+06-1.16127E+08 4.34539E+05-2.45884E+07 3.35780E+06
 -1        57-1.27254E+06-9.10046E+06-3.06311E+08 5.70719E+05-1.95667E+07 2.07140E+06
 -1        58 3.89016E+05-4.61637E+06-3.49650E+08 1.67139E+05-1.97586E+06 6.13150E+05
 -1        59-1.70862E+06-4.93367E+06-3.81872E+08-1.35094E+06 8.68627E+06-4.86524E+06
 -1        60-2.22408E+05-1.99223E+07-2.18410E+08 3.07808E+06 1.74318E+07 2.22480E+06
 -1        61-3.24400E+07-3.95495E+07-4.38237E+07 3.43707E+06 1.85627E+07-2.43289E+07
 -1        62 3.44270E+07 6.30700E+07 2.57260E+08-7.07338E+06 7.85148E+07 8.20581E+06
 -1        63-3.44270E+07-6.30700E+07-2.57260E+08 7.07338E+06 7.85148E+07 8.20581E+06
 -1        64 3.24400E+07 3.95495E+07 4.38237E+07-3.43707E+06 1.85627E+07-2.43289E+07
 -1        65 2.22408E+05 1.99223E+07 2.18410E+08-3.07808E+06 1.74318E+07 2.22480E+06
 -1        66 1.70862E+06 4.93367E+06 3.81872E+08 1.35094E+06 8.68627E+06-4.86524E+06
 -1        67-3.89016E+05 4.61637E+06 3.49650E+08-1.67139E+05-1.97586E+06 6.13150E+05
 -1        68 1.27254E+06 9.10046E+06 3.06311E+08-5.70719E+05-1.95667E+07 2.07140E+06
 -1        69 5.15010E+05 4.71564E+06 1.16127E+08-4.34539E+05-2.45884E+07 3.35780E+06
 -1        70 9.43232E+04-6.79887E+05-7.98445E+07 1.59713E+05-3.00339E+07 3.45621E+06
 -1        71-6.15051E+05-4.75661E+06-2.65701E+08 3.17990E+05-2.30957E+07 2.76749E+06
 -1        72 7.17081E+05-5.04642E+06-4.40388E+08 2.48821E+05-1.60000E+07 1.92087E+06
 -1        73-1.08884E+06-8.23390E+06-4.72401E+08 5.20067E+05-3.57229E+06 3.56282E+05
 -1        74 7.10935E+05-4.70886E+06-4.84024E+08 3.11291E+05 8.86518E+06-1.26642E+06
 -1        75-4.96086E+05-3.50924E+06-3.57078E+08 1.60570E+05 1.66136E+07-2.34013E+06
 -1        76 2.34742E+04-9.34584E+05-2.18917E+08-4.18154E+04 2.24748E+07-2.96840E+06
 -1        77 1.15202E+06 6.38353E+06-8.83472E+07-1.84694E+05 1.03365E+07-1.28336E+06
 -1        78-3.44270E+07-6.30700E+07-2.57260E+08-7.07338E+06 7.85148E+07-8.20581E+06
 -1        79 3.24400E+07 3.95495E+07 4.38237E+07 3.43707E+06 1.85627E+07 2.43289E+07
 -1        80 2.22408E+05 1.99223E+07 2.18410E+08 3.07808E+06 1.74318E+07-2.22480E+06
 -1        81 1.70862E+06 4.93367E+06 3.81872E+08-1.35094E+06 8.68627E+06 4.86524E+06
 -1        82-3.89016E+05 4.61637E+06 3.49650E+08 1.67139E+05-1.97586E+06-6.13150E+05
 -1        83 1.27254E+06 9.10046E+06 3.06311E+08 5.70719E+05-1.95667E+07-2.07140E+06
 -1        84 5.15010E+05 4.71564E+06 1.16127E+08 4.34539E+05-2.45884E+07-3.35780E+06
 -1        85 9.43232E+04-6.79887E+05-7.98445E+07-1.59713E+05-3.00339E+07-3.45621E+06
 -1        86-6.15051E+05-4.75661E+06-2.65701E+08-3.17990E+05-2.30957E+07-2.76749E+06
 -1        87 7.17081E+05-5.04642E+06-4.40388E+08-2.48821E+05-1.60000E+07-1.92087E+06
 -1        88-1.08884E+06-8.23390E+06-4.72401E+08-5.20067E+05-3.57229E+06-3.56282E+05
 -1        89 7.10935E+05-4.70886E+06-4.84024E+08-3.11291E+05 8.86518E+06 1.26642E+06
 -1        90-4.96086E+05-3.50924E+06-3.57078E+08-1.60570E+05 1.66136E+07 2.34013E+06
 -1        91 2.34742E+04-9.34584E+05-2.18917E+08 4.18154E+04 2.24748E+07 2.96840E+06
 -1        92 1.15202E+06 6.38353E+06-8.83472E+07 1.84694E+05 1.03365E+07 1.28336E+06
 -1        93 5.18362E+07 5.86494E+07 2.42154E+08-3.06405E-07 1.55355E+08-4.98735E-06
 -1        94 7.18981E-07 7.48783E-07 2.68966E-06-4.10264E+06 1.23532E+08-1.56848E-07
 -1        95 4.76837E-07 2.03028E-07 2.02097E-06-8.52393E-07 1.32850E+08-1.90019E-07
 -1        96 6.44475E-07 3.68804E-07 2.14949E-06 4.10264E+06 1.23532E+08-2.77942E-08
 -1        97-5.18362E+07-5.86494E+07-2.42154E+08-5.28060E-07 1.55355E+08 4.14194E-06
 -1        98-1.91672E+06-1.25412E+07-9.44501E+06 1.88861E-06 7.11053E+06-9.23668E-07
 -1        99-1.81701E-06-4.79445E-06-2.68826E-06 1.76158E+06 1.81991E+07 7.96921E-07
 -1       100 2.89525E-07-6.47083E-06-2.79525E-06 1.90205E-06 1.59649E+07 1.90207E-06
 -1       101 1.71131E-06 2.76323E-06 2.33599E-06-1.76158E+06 1.81991E+07 1.39637E-06
 -1       102 1.91672E+06 1.25412E+07 9.44501E+06-8.57282E-07 7.11053E+06 1.13109E-06
 -1       103 4.28295E+07 6.85607E+07 2.81596E+08 1.43889E-07 8.01892E+07-1.25435E-05
 -1       104-3.20665E+07-3.99288E+07-4.03807E+07 3.18455E+05 1.02526E+07-1.50619E+07
 -1       105-3.16929E+07-4.03080E+07-3.69377E+07-3.08966E-07 1.94262E+06-1.46693E-05
 -1       106-3.20665E+07-3.99288E+07-4.03807E+07-3.18455E+05 1.02526E+07 1.50619E+07
 -1       107-4.95310E+06-2.35178E+07-2.36321E+08-4.45172E-07 1.16382E+07-1.06585E-05
 -1       108 7.93288E+05-1.90806E+06-3.84113E+08 8.32955E+05 7.84064E+06-2.45639E+06
 -1       109 3.29520E+06 1.11755E+06-3.86355E+08-3.25032E-07 6.99502E+06-6.18093E-06
 -1       110 7.93288E+05-1.90806E+06-3.84113E+08-8.32955E+05 7.84064E+06 2.45639E+06
 -1       111 5.37219E+05-3.26133E+06-3.60823E+08-1.40630E-07-1.10034E+06-4.73345E-07
 -1       112-1.63346E+06-8.74997E+06-3.10621E+08 2.49275E+05-1.69330E+07 1.90698E+06
 -1       113-1.99438E+06-8.39948E+06-3.14931E+08-1.62952E-07-1.42994E+07 2.85730E-06
 -1       114-1.63346E+06-8.74997E+06-3.10621E+08-2.49275E+05-1.69330E+07-1.90698E+06
 -1       115-1.21988E+06-4.73131E+06-1.20928E+08 1.16930E-06-1.84433E+07 6.61961E-06
 -1       116 2.22630E+04 8.22075E+05 8.03800E+07-2.81837E+04-2.61978E+07 3.64453E+06
 -1       117 1.38849E+05 9.64263E+05 8.09156E+07 1.72245E-06-2.23618E+07 1.06012E-05
 -1       118 2.22630E+04 8.22075E+05 8.03800E+07 2.81837E+04-2.61978E+07-3.64453E+06
 -1       119 6.76155E+05 4.34305E+06 2.70870E+08 1.49957E-06-1.72849E+07 1.22027E-05
 -1       120-6.84226E+05 4.66498E+06 4.45142E+08-4.62338E+05-1.39797E+07 1.90558E+06
 -1       121-6.51371E+05 4.28353E+06 4.49897E+08 2.66341E-06-1.19595E+07 1.36718E-05
 -1       122-6.84226E+05 4.66498E+06 4.45142E+08 4.62338E+05-1.39797E+07-1.90558E+06
 -1       123 9.74321E+05 7.30116E+06 4.81814E+08 5.82368E-07-2.82204E+06 1.38576E-05
 -1       124-8.23458E+05 4.26818E+06 4.88689E+08-4.82490E+05 7.54675E+06-1.32324E+06
 -1       125-9.35980E+05 3.82750E+06 4.93353E+08-1.98244E-06 6.22832E+06 1.33324E-05
 -1       126-8.23458E+05 4.26818E+06 4.88689E+08 4.82490E+05 7.54675E+06 1.32324E+06
 -1       127 1.79692E+05 3.44296E+06 3.61640E+08-1.49501E-06 1.22407E+07 1.02215E-05
 -1       128-6.08830E+05 9.39244E+05 2.17914E+08 9.70525E+04 1.96289E+07-3.02160E+06
 -1       129-1.19418E+06 9.43903E+05 2.16910E+08-4.26342E-07 1.67830E+07 9.41590E-06
 -1       130-6.08830E+05 9.39244E+05 2.17914E+08-9.70525E+04 1.96289E+07 3.02160E+06
 -1       131-3.22426E+06-6.91319E+06 8.53820E+07 1.83421E-06 6.96936E+06 3.02901E-06
 -1       132-6.63102E-07 3.83705E-07 5.43892E-07 8.60944E+06 1.88723E+08 1.99070E-07
 -1       133-1.12587E+07-7.64613E+06-1.85055E+07-3.52026E+06 1.30386E+08 1.09935E+07
 -1       134-2.03215E-06-4.58211E-07-1.45286E-06-3.60345E+06 2.42209E+08 2.28058E-07
 -1       135 1.12587E+07 7.64613E+06 1.85055E+07-3.52026E+06 1.30386E+08-1.09935E+07
 -1       136-1.48453E-06-7.67410E-07-4.99189E-07-3.63654E+06 1.49937E+08 3.03844E-08
 -1       137-3.73235E+06-1.55251E+07-1.83994E+08 1.89890E+06 3.73702E+07 2.16390E+06
 -1       138-1.79268E-06-6.42613E-07 9.63919E-07 2.44686E+06 6.60541E+07-8.41239E-07
 -1       139 3.73235E+06 1.55251E+07 1.83994E+08 1.89890E+06 3.73702E+07-2.16390E+06
 -1       140-2.52260E-06-1.59722E-06 3.27826E-07 3.37706E+05-2.49655E+07-6.49132E-07
 -1       141-1.88107E+03-7.55874E+06-1.46661E+08-6.35043E+05-6.41561E+07-4.37181E+05
 -1       142-1.98674E-06-1.94181E-06 1.89524E-07-6.99366E+05-1.08746E+08-7.95408E-07
 -1       143 1.88107E+03 7.55874E+06 1.46661E+08-6.35043E+05-6.41561E+07 4.37181E+05
 -1       144-7.47619E-06-6.58445E-07-7.62753E-07-4.55844E+05-1.46663E+08-6.81961E-07
 -1       145-2.23675E+05 1.38412E+05 3.95108E+07 1.66873E+05-1.04429E+08-8.01292E+05
 -1       146-1.39647E-05-2.07848E-06-2.54344E-06 1.74033E+05-1.78823E+08-2.62633E-07
 -1       147 2.23675E+05-1.38412E+05-3.95108E+07 1.66873E+05-1.04429E+08 8.01292E+05
 -1       148-6.58911E-06-4.15952E-06-8.38190E-07 2.95731E+05-1.40639E+08 4.02797E-07
 -1       149-1.46275E+05 7.15035E+06 2.14525E+08 1.54928E+05-5.67617E+07-4.70256E+05
 -1       150 1.80484E-06-4.17861E-06 2.49594E-07 6.10340E+04-9.75233E+07 1.60129E-07
 -1       151 1.46275E+05-7.15035E+06-2.14525E+08 1.54928E+05-5.67617E+07 4.70256E+05
 -1       152 2.94507E-06-1.88872E-06 5.25266E-07 3.85577E+05-2.26228E+07-6.32921E-07
 -1       153-4.04862E+04 6.79754E+06 2.36895E+08 2.13877E+05 3.08839E+07 2.85971E+05
 -1       154 2.09850E-06-2.46847E-06-1.86265E-07 1.16463E+05 5.29027E+07 5.59638E-07
 -1       155 4.04862E+04-6.79754E+06-2.36895E+08 2.13877E+05 3.08839E+07-2.85971E+05
 -1       156 3.78652E-06-8.42847E-07-1.62423E-06 2.04949E+05 8.83776E+07-4.55417E-07
 -1       157-1.09791E+05 2.94573E+05 1.09926E+08 9.11684E+04 7.21095E+07 8.66136E+05
 -1       158 7.39913E-06 5.44963E-06-1.43889E-07 2.24152E+05 1.21744E+08-2.56518E-06
 -1       159 1.09791E+05-2.94573E+05-1.09926E+08 9.11684E+04 7.21095E+07-8.66136E+05
 -1       160 5.42216E-06 4.13042E-06 2.74926E-06-7.98264E+05 7.29950E+07-8.27247E-07
 -1       161-4.28295E+07-6.85607E+07-2.81596E+08-4.40516E-07 8.01892E+07 1.20369E-05
 -1       162 3.20665E+07 3.99288E+07 4.03807E+07-3.18455E+05 1.02526E+07-1.50619E+07
 -1       163 3.16929E+07 4.03080E+07 3.69377E+07-8.24220E-07 1.94262E+06 1.51661E-05
 -1       164 3.20665E+07 3.99288E+07 4.03807E+07 3.18455E+05 1.02526E+07 1.50619E+07
 -1       165 4.95310E+06 2.35178E+07 2.36321E+08 7.75792E-07 1.16382E+07 1.02534E-05
 -1       166-7.93288E+05 1.90806E+06 3.84113E+08-8.32955E+05 7.84064E+06-2.45639E+06
 -1       167-3.29520E+06-1.11755E+06 3.86355E+08 1.41654E-06 6.99502E+06 5.08045E-06
 -1       168-7.93288E+05 1.90806E+06 3.84113E+08 8.32955E+05 7.84064E+06 2.45639E+06
 -1       169-5.37219E+05 3.26133E+06 3.60823E+08-9.53674E-07-1.10034E+06 1.81969E-06
 -1       170 1.63346E+06 8.74997E+06 3.10621E+08-2.49275E+05-1.69330E+07 1.90698E+06
 -1       171 1.99438E+06 8.39948E+06 3.14931E+08-2.39282E-06-1.42994E+07-1.39989E-06
 -1       172 1.63346E+06 8.74997E+06 3.10621E+08 2.49275E+05-1.69330E+07-1.90698E+06
 -1       173 1.21988E+06 4.73131E+06 1.20928E+08-1.81592E-06-1.84433E+07-6.08503E-06
 -1       174-2.22630E+04-8.22075E+05-8.03800E+07 2.81837E+04-2.61978E+07 3.64453E+06
 -1       175-1.38849E+05-9.64263E+05-8.09156E+07-7.72707E-07-2.23618E+07-9.33988E-06
 -1       176-2.22630E+04-8.22075E+05-8.03800E+07-2.81837E+04-2.61978E+07-3.64453E+06
 -1       177-6.76155E+05-4.34305E+06-2.70870E+08-1.05900E-06-1.72849E+07-1.16124E-05
 -1       178 6.84226E+05-4.66498E+06-4.45142E+08 4.62338E+05-1.39797E+07 1.90558E+06
 -1       179 6.51371E+05-4.28353E+06-4.49897E+08-1.19563E-06-1.19595E+07-1.44480E-05
 -1       180 6.84226E+05-4.66498E+06-4.45142E+08-4.62338E+05-1.39797E+07-1.90558E+06
 -1       181-9.74321E+05-7.30116E+06-4.81814E+08-1.62079E-07-2.82204E+06-1.38086E-05
 -1       182 8.23458E+05-4.26818E+06-4.88689E+08 4.82490E+05 7.54675E+06-1.32324E+06
 -1       183 9.35980E+05-3.82750E+06-4.93353E+08 7.36618E-08 6.22832E+06-1.32654E-05
 -1       184 8.23458E+05-4.26818E+06-4.88689E+08-4.82490E+05 7.54675E+06 1.32324E+06
 -1       185-1.79692E+05-3.44296E+06-3.61640E+08 1.71887E-07 1.22407E+07-1.06872E-05
 -1       186 6.08830E+05-9.39244E+05-2.17914E+08-9.70525E+04 1.96289E+07-3.02160E+06
 -1       187 1.19418E+06-9.43903E+05-2.16910E+08 3.19036E-07 1.67830E+07-7.78097E-06
 -1       188 6.08830E+05-9.39244E+05-2.17914E+08 9.70525E+04 1.96289E+07 3.02160E+06
 -1       189 3.22426E+06 6.91319E+06-8.53820E+07-2.71449E-06 6.96936E+06-3.48035E-06
 -1       190-6.70552E-07 3.42727E-07 5.81145E-07-8.60944E+06 1.88723E+08 5.53555E-08
 -1       191 1.12587E+07 7.64613E+06 1.85055E+07 3.52026E+06 1.30386E+08 1.09935E+07
 -1       192-7.25500E-07 1.17347E-06 3.98606E-07 3.60345E+06 2.42209E+08-2.71946E-07
 -1       193-1.12587E+07-7.64613E+06-1.85055E+07 3.52026E+06 1.30386E+08-1.09935E+07
 -1       194-3.83705E-07 4.97326E-07 1.91107E-06 3.63654E+06 1.49937E+08 2.03378E-07
 -1       195 3.73235E+06 1.55251E+07 1.83994E+08-1.89890E+06 3.73702E+07 2.16390E+06
 -1       196-1.95054E-06-1.72947E-06-3.35276E-08-2.44686E+06 6.60541E+07 4.97814E-07
 -1       197-3.73235E+06-1.55251E+07-1.83994E+08-1.89890E+06 3.73702E+07-2.16390E+06
 -1       198 2.25997E-06-9.06177E-07 8.43778E-07-3.37706E+05-2.49655E+07 2.48547E-07
 -1       199 1.88107E+03 7.55874E+06 1.46661E+08 6.35043E+05-6.41561E+07-4.37181E+05
 -1       200 5.86308E-06-1.54646E-06 1.76812E-06 6.99366E+05-1.08746E+08 5.74917E-07
 -1       201-1.88107E+03-7.55874E+06-1.46661E+08 6.35043E+05-6.41561E+07 4.37181E+05
 -1       202 2.40561E-06-4.73810E-07 6.53788E-07 4.55844E+05-1.46663E+08-1.82074E-07
 -1       203 2.23675E+05-1.38412E+05-3.95108E+07-1.66873E+05-1.04429E+08-8.01292E+05
 -1       204-8.03731E-07 7.58097E-07 1.42027E-07-1.74033E+05-1.78823E+08 2.17056E-07
 -1       205-2.23675E+05 1.38412E+05 3.95108E+07-1.66873E+05-1.04429E+08 8.01292E+05
 -1       206-3.19618E-06-3.37907E-06-1.73319E-06-2.95731E+05-1.40639E+08 9.89530E-08
 -1       207 1.46275E+05-7.15035E+06-2.14525E+08-1.54928E+05-5.67617E+07-4.70256E+05
 -1       208-7.68568E-06-9.48901E-06-5.99306E-06-6.10340E+04-9.75233E+07-1.78930E-07
 -1       209-1.46275E+05 7.15035E+06 2.14525E+08-1.54928E+05-5.67617E+07 4.70256E+05
 -1       210-8.25711E-06-5.99865E-06-3.24473E-06-3.85577E+05-2.26228E+07-6.39528E-07
 -1       211 4.04862E+04-6.79754E+06-2.36895E+08-2.13877E+05 3.08839E+07 2.85971E+05
 -1       212-5.62135E-06 4.73112E-07 1.58092E-06-1.16463E+05 5.29027E+07-1.00178E-06
 -1       213-4.04862E+04 6.79754E+06 2.36895E+08-2.13877E+05 3.08839E+07-2.85971E+05
 -1       214-4.20865E-06 3.37418E-06 1.14320E-06-2.04949E+05 8.83776E+07-1.16066E-07
 -1       215 1.09791E+05-2.94573E+05-1.09926E+08-9.11684E+04 7.21095E+07 8.66136E+05
 -1       216-5.09317E-06 1.79233E-06 1.76951E-08-2.24152E+05 1.21744E+08 7.11298E-07
 -1       217-1.09791E+05 2.94573E+05 1.09926E+08-9.11684E+04 7.21095E+07-8.66136E+05
 -1       218-5.36232E-06 2.41492E-06-3.54834E-07 7.98264E+05 7.29950E+07 2.74042E-07
 -1       219 1.94833E-06 1.83936E-06 2.15508E-06-3.23053E-07 1.81382E+08-3.27418E-07
 -1       220-1.06901E+07-7.67059E+06-1.47673E+07 4.40283E-07 1.07811E+08-6.78713E-06
 -1       221 9.22009E-07 2.14018E-06 1.01514E-06 4.84834E+05 2.27945E+08-4.46336E-07
 -1       222 3.71551E-06 3.60981E-06 2.11596E-06 9.98494E-07 2.13680E+08-7.75326E-07
 -1       223 1.41654E-06 1.82912E-06 5.73695E-07-4.84834E+05 2.27945E+08-3.50876E-07
 -1       224 1.06901E+07 7.67059E+06 1.47673E+07-8.14907E-09 1.07811E+08 6.26023E-06
 -1       225 2.75299E-06-6.45872E-07 1.34297E-06 1.44093E-06 1.34745E+08-3.78059E-07
 -1       226-1.40808E+06-1.21298E+07-1.87198E+08 1.07673E-06 3.37256E+07-2.59059E-06
 -1       227-4.70551E-07-3.10224E-06 2.99420E-07-2.62969E+05 6.32551E+07 4.19619E-07
 -1       228 1.22329E-06-4.47640E-06 8.96398E-07 1.19882E-06 6.04562E+07 2.28836E-07
 -1       229-1.77999E-07-2.56021E-06 1.06217E-06 2.62969E+05 6.32551E+07-3.62503E-07
 -1       230 1.40808E+06 1.21298E+07 1.87198E+08 6.67875E-07 3.37256E+07 2.26917E-06
 -1       231 4.99829E-07 3.14321E-07 1.04308E-06 9.67993E-07-2.17334E+07 5.25411E-07
 -1       232-3.70064E+05-6.70656E+06-1.51497E+08 1.97790E-07-5.54966E+07 1.94409E-06
 -1       233 1.58243E-06 1.26986E-06 1.63820E-06 3.77922E+05-1.02720E+08 6.96280E-07
 -1       234 6.47298E-07 5.15545E-06 2.74635E-06 6.06524E-07-9.66937E+07 1.38591E-06
 -1       235 1.00303E-06 2.14158E-06 2.08709E-06-3.77922E+05-1.02720E+08 5.79457E-07
 -1       236 3.70064E+05 6.70656E+06 1.51497E+08-8.69157E-07-5.54966E+07 1.70519E-07
 -1       237 4.61529E-06 4.86628E-06 3.72389E-06 9.58498E-07-1.30276E+08 3.10654E-07
 -1       238-9.15733E+04 2.88612E+05 4.00900E+07 9.87377E-07-9.06648E+07 4.51558E-06
 -1       239 5.90924E-07 6.95465E-07 6.59842E-07-4.25037E+04-1.68895E+08-1.46159E-07
 -1       240 7.82905E-06 2.89059E-06 3.60771E-06 1.16522E-06-1.58968E+08-4.20434E-07
 -1       241-1.46218E-07 1.53482E-06 1.74809E-06 4.25037E+04-1.68895E+08-2.96917E-07
 -1       242 9.15733E+04-2.88612E+05-4.00900E+07 6.52712E-07-9.06648E+07-4.30539E-06
 -1       243 3.78740E-06 1.77952E-06 2.25194E-06-1.23550E-06-1.25116E+08 9.94187E-08
 -1       244-7.02950E+04 6.31162E+06 2.19881E+08-1.62036E-07-4.94748E+07 5.42251E-06
 -1       245-2.83506E-06-3.60003E-06-1.21491E-06-2.74551E+05-9.22568E+07-6.09347E-07
 -1       246 6.94010E-07 2.09454E-06 2.98163E-06-3.33587E-06-8.69902E+07-8.72576E-07
 -1       247 5.88829E-07-1.13901E-06 1.32481E-06 2.74551E+05-9.22568E+07-2.72616E-07
 -1       248 7.02950E+04-6.31162E+06-2.19881E+08-2.43992E-06-4.94748E+07-6.68323E-06
 -1       249 1.13714E-06 1.90921E-06 1.82213E-06-6.59646E-07-2.04998E+07-6.04283E-07
 -1       250-1.12032E+05 5.92884E+06 2.42123E+08-7.81525E-07 2.62427E+07 5.83252E-06
 -1       251 4.40050E-08 1.46125E-06 1.67149E-06-2.87663E+05 4.95799E+07-7.63859E-07
 -1       252 1.67370E-06 1.63470E-06-5.45057E-07 1.10790E-06 4.62571E+07-1.81317E-07
 -1       253-1.31666E-07-8.23289E-07-1.51922E-06 2.87663E+05 4.95799E+07 3.61470E-07
 -1       254 1.12032E+05-5.92884E+06-2.42123E+08 9.35048E-07 2.62427E+07-5.98030E-06
 -1       255 1.04459E-06-2.37860E-06 3.42494E-07-6.09507E-07 7.77704E+07 3.26429E-07
 -1       256-6.70735E+05 3.66556E+05 1.08937E+08-1.48718E-06 6.17974E+07 4.75335E-06
 -1       257-3.27360E-07-4.65196E-07 4.88944E-07-1.68915E+05 1.14278E+08 5.72647E-07
 -1       258-1.72504E-06-8.34442E-06-2.23238E-06-2.73227E-06 1.06812E+08 1.12123E-06
 -1       259-2.44705E-07-4.25894E-06-2.78465E-06 1.68915E+05 1.14278E+08-3.78350E-07
 -1       260 6.70735E+05-3.66556E+05-1.08937E+08-1.29870E-06 6.17974E+07-2.81469E-06
 -1       261-1.34349E-06-8.25129E-06-3.49432E-06-1.00603E-06 6.26883E+07 1.39014E-06
 -3
    1PSTEP                        17           1           1          
    1PGM                1.000000E+00                                  
    1PGK                2.692186E+06                                  
    1PHID                         -1                                  
    1PSUBC                         0                                  
    1PMODE                         9                                  
  100CL  109 2.61140E+02         261                     2    9MODAL      1
 -4  DISP        4    1
 -5  D1          1    2    1    0
 -5  D2          1    2    2    0
 -5  D3          1    2    3    0
 -5  ALL         1    2    0    0    1ALL
 -1         1 0.00000E+00 0.00000E+00 0.00000E+00
 -1         2 0.00000E+00 0.00000E+00 0.00000E+00
 -1         3 0.00000E+00 0.00000E+00 0.00000E+00
 -1         4 0.00000E+00 0.00000E+00 0.00000E+00
 -1         5 6.89033E-03-4.42967E-03 2.55871E-04
 -1         6 6.89033E-03 4.42967E-03-2.55871E-04
 -1         7-6.89033E-03 4.42967E-03 2.55871E-04
 -1         8-6.89033E-03-4.42967E-03-2.55871E-04
 -1         9 0.00000E+00 0.00000E+00 0.00000E+00
 -1        10 0.00000E+00 0.00000E+00 0.00000E+00
 -1        11 0.00000E+00 0.00000E+00 0.00000E+00
 -1        12 0.00000E+00 0.00000E+00 0.00000E+00
 -1        13 0.00000E+00 0.00000E+00 0.00000E+00
 -1        14 0.00000E+00 0.00000E+00 0.00000E+00
 -1        15 0.00000E+00 0.00000E+00 0.00000E+00
 -1        16 0.00000E+00 0.00000E+00 0.00000E+00
 -1        17 0.00000E+00 0.00000E+00 0.00000E+00
 -1        18 0.00000E+00 0.00000E+00 0.00000E+00
 -1        19 0.00000E+00 0.00000E+00 0.00000E+00
 -1        20 0.00000E+00 0.00000E+00 0.00000E+00
 -1        21 6.87547E-03-2.20415E-03 1.28795E-04
 -1        22 6.85624E-03-2.72135E-16-1.56559E-16
 -1        23 6.87547E-03 2.20415E-03-1.28795E-04
 -1        24 3.47474E-03 4.40618E-03-1.76738E-04
 -1        25-1.53957E-16 4.37647E-03 1.00180E-16
 -1        26-3.47474E-03 4.40618E-03 1.76738E-04
 -1        27-6.87547E-03 2.20415E-03 1.28795E-04
 -1        28-6.85624E-03-2.81025E-16 1.69136E-16
 -1        29-6.87547E-03-2.20415E-03-1.28795E-04
 -1        30-3.47474E-03-4.40618E-03-1.76738E-04
 -1        31-1.49308E-16-4.37647E-03-8.41341E-17
 -1        32 3.47474E-03-4.40618E-03 1.76738E-04
 -1        33-1.59604E-03-1.02637E-03 3.66876E-04
 -1        34-3.36664E-03-2.27011E-03 4.03404E-04
 -1        35-4.98786E-03-3.32198E-03 3.55207E-04
 -1        36-6.06967E-03-4.04759E-03 2.33188E-04
 -1        37-6.64203E-03-4.41157E-03 7.64882E-05
 -1        38-6.61592E-03-4.40111E-03-8.42072E-05
 -1        39-6.02832E-03-4.00800E-03-2.41479E-04
 -1        40-4.89287E-03-3.25287E-03-3.69191E-04
 -1        41-3.33336E-03-2.21591E-03-4.76886E-04
 -1        42-1.47519E-03-9.80558E-04-5.27769E-04
 -1        43 5.10281E-04 3.38913E-04-5.48043E-04
 -1        44 2.45195E-03 1.63099E-03-5.04352E-04
 -1        45 4.18169E-03 2.78250E-03-4.36442E-04
 -1        46 5.54632E-03 3.68434E-03-3.31384E-04
 -1        47 6.43294E-03 4.26340E-03-2.59124E-04
 -1        48 6.43294E-03-4.26340E-03 2.59124E-04
 -1        49 5.54632E-03-3.68434E-03 3.31384E-04
 -1        50 4.18169E-03-2.78250E-03 4.36442E-04
 -1        51 2.45195E-03-1.63099E-03 5.04352E-04
 -1        52 5.10281E-04-3.38913E-04 5.48043E-04
 -1        53-1.47519E-03 9.80558E-04 5.27769E-04
 -1        54-3.33336E-03 2.21591E-03 4.76886E-04
 -1        55-4.89287E-03 3.25287E-03 3.69191E-04
 -1        56-6.02832E-03 4.00800E-03 2.41479E-04
 -1        57-6.61592E-03 4.40111E-03 8.42072E-05
 -1        58-6.64203E-03 4.41157E-03-7.64882E-05
 -1        59-6.06967E-03 4.04759E-03-2.33188E-04
 -1        60-4.98786E-03 3.32198E-03-3.55207E-04
 -1        61-3.36664E-03 2.27011E-03-4.03404E-04
 -1        62-1.59604E-03 1.02637E-03-3.66876E-04
 -1        63 1.59604E-03-1.02637E-03-3.66876E-04
 -1        64 3.36664E-03-2.27011E-03-4.03404E-04
 -1        65 4.98786E-03-3.32198E-03-3.55207E-04
 -1        66 6.06967E-03-4.04759E-03-2.33188E-04
 -1        67 6.64203E-03-4.41157E-03-7.64882E-05
 -1        68 6.61592E-03-4.40111E-03 8.42072E-05
 -1        69 6.02832E-03-4.00800E-03 2.41479E-04
 -1        70 4.89287E-03-3.25287E-03 3.69191E-04
 -1        71 3.33336E-03-2.21591E-03 4.76886E-04
 -1        72 1.47519E-03-9.80558E-04 5.27769E-04
 -1        73-5.10281E-04 3.38913E-04 5.48043E-04
 -1        74-2.45195E-03 1.63099E-03 5.04352E-04
 -1        75-4.18169E-03 2.78250E-03 4.36442E-04
 -1        76-5.54632E-03 3.68434E-03 3.31384E-04
 -1        77-6.43294E-03 4.26340E-03 2.59124E-04
 -1        78 1.59604E-03 1.02637E-03 3.66876E-04
 -1        79 3.36664E-03 2.27011E-03 4.03404E-04
 -1        80 4.98786E-03 3.32198E-03 3.55207E-04
 -1        81 6.06967E-03 4.04759E-03 2.33188E-04
 -1        82 6.64203E-03 4.41157E-03 7.64882E-05
 -1        83 6.61592E-03 4.40111E-03-8.42072E-05
 -1        84 6.02832E-03 4.00800E-03-2.41479E-04
 -1        85 4.89287E-03 3.25287E-03-3.69191E-04
 -1        86 3.33336E-03 2.21591E-03-4.76886E-04
 -1        87 1.47519E-03 9.80558E-04-5.27769E-04
 -1        88-5.10281E-04-3.38913E-04-5.48043E-04
 -1        89-2.45195E-03-1.63099E-03-5.04352E-04
 -1        90-4.18169E-03-2.78250E-03-4.36442E-04
 -1        91-5.54632E-03-3.68434E-03-3.31384E-04
 -1        92-6.43294E-03-4.26340E-03-2.59124E-04
 -1        93 0.00000E+00 0.00000E+00 0.00000E+00
 -1        94 0.00000E+00 0.00000E+00 0.00000E+00
 -1        95 0.00000E+00 0.00000E+00 0.00000E+00
 -1        96 0.00000E+00 0.00000E+00 0.00000E+00
 -1        97 0.00000E+00 0.00000E+00 0.00000E+00
 -1        98 3.46473E-03-2.72135E-16-6.80879E-17
 -1        99-1.27936E-16-2.15524E-03-3.38271E-17
 -1       100-1.29020E-16-2.55438E-16 9.97466E-18
 -1       101-1.47451E-16 2.15524E-03 5.70290E-17
 -1       102-3.46473E-03-2.29417E-16 8.93383E-17
 -1       103-1.58633E-03-4.83554E-17-3.33934E-17
 -1       104-3.39104E-03 1.13775E-03 3.68136E-05
 -1       105-3.42665E-03-1.03867E-16-4.72712E-17
 -1       106-3.39104E-03-1.13775E-03-3.68136E-05
 -1       107-4.94943E-03-1.56925E-16-2.80808E-17
 -1       108-6.09048E-03 2.01691E-03-4.58481E-05
 -1       109-6.08618E-03-1.82796E-16 9.75782E-19
 -1       110-6.09048E-03-2.01691E-03 4.58481E-05
 -1       111-6.63329E-03-1.71954E-16 3.84892E-17
 -1       112-6.63051E-03 2.19522E-03 1.45417E-05
 -1       113-6.62619E-03-1.36664E-16 8.51099E-17
 -1       114-6.63051E-03-2.19522E-03-1.45417E-05
 -1       115-6.01983E-03-7.28584E-17 1.02566E-16
 -1       116-4.90252E-03 1.62200E-03 4.65269E-05
 -1       117-4.89609E-03 1.37152E-17 1.07119E-16
 -1       118-4.90252E-03-1.62200E-03-4.65269E-05
 -1       119-3.32969E-03 9.42714E-17 8.97719E-17
 -1       120-1.47802E-03 4.88899E-04 6.85524E-05
 -1       121-1.47632E-03 1.46150E-16 4.98733E-17
 -1       122-1.47802E-03-4.88899E-04-6.85524E-05
 -1       123 5.10029E-04 1.71304E-16 0.00000E+00
 -1       124 2.45563E-03-8.12962E-04 6.47306E-05
 -1       125 2.45156E-03 1.25334E-16-5.42101E-17
 -1       126 2.45563E-03 8.12962E-04-6.47306E-05
 -1       127 4.17520E-03 7.68699E-17-1.06469E-16
 -1       128 5.55308E-03-1.83914E-03 5.77632E-05
 -1       129 5.54499E-03-2.18060E-17-1.42139E-16
 -1       130 5.55308E-03 1.83914E-03-5.77632E-05
 -1       131 6.40976E-03-1.64690E-16-1.47668E-16
 -1       132-1.04626E-17-1.22317E-03 9.89334E-18
 -1       133-1.68672E-03-2.24649E-03 6.02826E-04
 -1       134-2.29851E-17-2.21964E-03 1.59378E-17
 -1       135 1.68672E-03-2.24649E-03-6.02826E-04
 -1       136-3.38271E-17-3.24285E-03 2.27682E-17
 -1       137-3.03308E-03-4.00590E-03 2.67053E-04
 -1       138-6.04985E-17-3.97666E-03 2.50451E-17
 -1       139 3.03308E-03-4.00590E-03-2.67053E-04
 -1       140-6.63532E-17-4.34215E-03 2.14672E-17
 -1       141-3.31153E-03-4.35859E-03-9.99208E-05
 -1       142-9.70632E-17-4.33153E-03 1.43115E-17
 -1       143 3.31153E-03-4.35859E-03 9.99208E-05
 -1       144-8.73867E-17-3.93579E-03-4.55365E-18
 -1       145-2.44768E-03-3.22230E-03-4.55483E-04
 -1       146-6.97413E-17-3.20229E-03-3.46945E-17
 -1       147 2.44768E-03-3.22230E-03 4.55483E-04
 -1       148 2.16840E-19-2.17715E-03-5.25838E-17
 -1       149-7.38335E-04-9.71545E-04-6.48614E-04
 -1       150 6.49437E-17-9.65927E-04-4.34765E-17
 -1       151 7.38335E-04-9.71545E-04 6.48614E-04
 -1       152 1.16931E-16 3.34291E-04-1.21431E-17
 -1       153 1.22748E-03 1.61543E-03-6.21274E-04
 -1       154 1.33140E-16 1.60533E-03 2.10335E-17
 -1       155-1.22748E-03 1.61543E-03 6.21274E-04
 -1       156 9.43256E-17 2.73313E-03 6.26669E-17
 -1       157 2.76978E-03 3.64635E-03-3.89385E-04
 -1       158 3.33934E-17 3.61730E-03 9.51930E-17
 -1       159-2.76978E-03 3.64635E-03 3.89385E-04
 -1       160-5.55112E-17 4.24558E-03 1.12757E-16
 -1       161 1.58633E-03-4.86265E-17 3.68629E-17
 -1       162 3.39104E-03-1.13775E-03 3.68136E-05
 -1       163 3.42665E-03-1.05059E-16 5.59448E-17
 -1       164 3.39104E-03 1.13775E-03-3.68136E-05
 -1       165 4.94943E-03-1.51788E-16 3.90042E-17
 -1       166 6.09048E-03-2.01691E-03-4.58481E-05
 -1       167 6.08618E-03-1.83881E-16 1.30104E-17
 -1       168 6.09048E-03 2.01691E-03 4.58481E-05
 -1       169 6.63329E-03-1.66967E-16-1.79435E-17
 -1       170 6.63051E-03-2.19522E-03 1.45417E-05
 -1       171 6.62619E-03-1.34224E-16-5.03070E-17
 -1       172 6.63051E-03 2.19522E-03-1.45417E-05
 -1       173 6.01983E-03-7.37257E-17-8.23994E-17
 -1       174 4.90252E-03-1.62200E-03 4.65269E-05
 -1       175 4.89609E-03 2.64545E-17-8.63025E-17
 -1       176 4.90252E-03 1.62200E-03-4.65269E-05
 -1       177 3.32969E-03 1.06035E-16-6.67869E-17
 -1       178 1.47802E-03-4.88899E-04 6.85524E-05
 -1       179 1.47632E-03 1.58158E-16-3.14419E-17
 -1       180 1.47802E-03 4.88899E-04-6.85524E-05
 -1       181-5.10029E-04 1.56830E-16 2.38524E-17
 -1       182-2.45563E-03 8.12962E-04 6.47306E-05
 -1       183-2.45156E-03 1.23599E-16 7.71952E-17
 -1       184-2.45563E-03-8.12962E-04-6.47306E-05
 -1       185-4.17520E-03 7.45931E-17 1.20455E-16
 -1       186-5.55308E-03 1.83914E-03 5.77632E-05
 -1       187-5.54499E-03-3.57719E-17 1.65666E-16
 -1       188-5.55308E-03-1.83914E-03-5.77632E-05
 -1       189-6.40976E-03-1.56559E-16 1.68268E-16
 -1       190-5.85469E-18 1.22317E-03-4.77049E-18
 -1       191 1.68672E-03 2.24649E-03 6.02826E-04
 -1       192-1.87025E-17 2.21964E-03-5.20417E-18
 -1       193-1.68672E-03 2.24649E-03-6.02826E-04
 -1       194-2.68882E-17 3.24285E-03-1.06252E-17
 -1       195 3.03308E-03 4.00590E-03 2.67053E-04
 -1       196-5.10659E-17 3.97666E-03-8.83625E-18
 -1       197-3.03308E-03 4.00590E-03-2.67053E-04
 -1       198-6.71121E-17 4.34215E-03-2.60209E-18
 -1       199 3.31153E-03 4.35859E-03-9.99208E-05
 -1       200-9.32414E-17 4.33153E-03 3.03577E-18
 -1       201-3.31153E-03 4.35859E-03 9.99208E-05
 -1       202-9.71445E-17 3.93579E-03 2.68882E-17
 -1       203 2.44768E-03 3.22230E-03-4.55483E-04
 -1       204-5.59448E-17 3.20229E-03 4.90059E-17
 -1       205-2.44768E-03 3.22230E-03 4.55483E-04
 -1       206-9.43256E-18 2.17715E-03 6.87384E-17
 -1       207 7.38335E-04 9.71545E-04-6.48614E-04
 -1       208 7.36444E-17 9.65927E-04 5.62701E-17
 -1       209-7.38335E-04 9.71545E-04 6.48614E-04
 -1       210 1.10589E-16-3.34291E-04 3.75134E-17
 -1       211-1.22748E-03-1.61543E-03-6.21274E-04
 -1       212 1.33574E-16-1.60533E-03-4.77049E-18
 -1       213 1.22748E-03-1.61543E-03 6.21274E-04
 -1       214 1.08420E-16-2.73313E-03-4.14165E-17
 -1       215-2.76978E-03-3.64635E-03-3.89385E-04
 -1       216 3.01408E-17-3.61730E-03-6.86300E-17
 -1       217 2.76978E-03-3.64635E-03 3.89385E-04
 -1       218-5.40475E-17-4.24558E-03-7.50268E-17
 -1       219-6.88468E-18-4.40186E-17 4.33681E-19
 -1       220-1.71017E-03-1.03433E-16-1.33831E-17
 -1       221-1.99493E-17 1.11596E-03 1.30104E-18
 -1       222-2.19009E-17-1.04083E-16 4.87891E-18
 -1       223-2.58040E-17-1.11596E-03 1.05710E-17
 -1       224 1.71017E-03-1.05601E-16 2.21177E-17
 -1       225-3.70797E-17-1.60896E-16 6.23416E-18
 -1       226-3.05504E-03-1.86862E-16 8.45678E-18
 -1       227-5.98480E-17 1.97214E-03-3.57787E-18
 -1       228-7.00530E-17-1.84098E-16 5.52943E-18
 -1       229-6.75458E-17-1.97214E-03 1.73472E-17
 -1       230 3.05504E-03-1.78677E-16 9.97466E-18
 -1       231-7.78999E-17-1.83501E-16 7.26415E-18
 -1       232-3.32634E-03-1.31026E-16 4.20670E-17
 -1       233-9.70666E-17 2.15106E-03 1.08420E-17
 -1       234-8.85793E-17-1.29020E-16 9.97466E-18
 -1       235-9.49761E-17-2.15106E-03 8.67362E-18
 -1       236 3.32634E-03-1.52242E-16-1.99493E-17
 -1       237-9.03140E-17-6.77084E-17 1.17094E-17
 -1       238-2.45773E-03 1.66425E-17 5.04154E-17
 -1       239-5.00901E-17 1.58962E-03 2.81893E-17
 -1       240-5.05780E-17 2.27682E-17 8.67362E-18
 -1       241-8.62330E-17-1.58962E-03-1.21431E-17
 -1       242 2.45773E-03 3.05745E-17-2.71051E-17
 -1       243-8.67362E-19 1.06577E-16 1.02999E-17
 -1       244-7.41296E-04 1.61763E-16 2.99240E-17
 -1       245 8.01768E-17 4.79312E-04 3.37729E-17
 -1       246 7.57044E-17 1.69136E-16 1.08691E-17
 -1       247 7.94449E-17-4.79312E-04-1.29020E-17
 -1       248 7.41296E-04 1.52547E-16-7.37257E-18
 -1       249 1.32706E-16 1.84314E-16 5.09575E-18
 -1       250 1.23138E-03 1.43603E-16-1.79978E-17
 -1       251 1.51571E-16-7.95986E-04 4.44523E-18
 -1       252 1.47343E-16 1.44416E-16 1.26852E-17
 -1       253 1.45283E-16 7.95986E-04 1.60462E-17
 -1       254-1.23138E-03 1.45283E-16 4.38018E-17
 -1       255 1.10019E-16 1.01048E-16 1.38778E-17
 -1       256 2.77710E-03-3.53450E-17-6.24907E-17
 -1       257 4.99275E-17-1.80256E-03-2.93819E-17
 -1       258 4.62954E-17-1.72388E-17 1.00560E-17
 -1       259 5.00901E-17 1.80256E-03 4.66207E-17
 -1       260-2.77710E-03-9.75782E-18 8.95551E-17
 -1       261-4.09828E-17-1.49620E-16 3.46945E-18
 -3
    1PSTEP                        18           1           1          
    1PGM                1.000000E+00                                  
    1PGK                2.692186E+06                                  
    1PHID                         -1                                  
    1PSUBC                         0                                  
    1PMODE                         9                                  
  100CL  109 2.61140E+02         261                     2    9MODAL      1
 -4  STRESS      6    1
 -5  SXX         1    4    1    1
 -5  SYY         1    4    2    2
 -5  SZZ         1    4    3    3
 -5  SXY         1    4    1    2
 -5  SYZ         1    4    2    3
 -5  SZX         1    4    3    1
 -1         1-1.03169E+08-7.98434E+07-3.01126E+08 5.43856E+06 1.60327E+08-2.25811E+08
 -1         2 1.03169E+08 7.98434E+07 3.01126E+08 5.43856E+06-1.60327E+08-2.25811E+08
 -1         3-1.03169E+08-7.98434E+07-3.01126E+08 5.43856E+06-1.60327E+08 2.25811E+08
 -1         4 1.03169E+08 7.98434E+07 3.01126E+08 5.43856E+06 1.60327E+08 2.25811E+08
 -1         5-7.08531E+06 6.67603E+06 3.74778E+06 1.70956E+05 2.36966E+06-1.60785E+06
 -1         6 7.08531E+06-6.67603E+06-3.74778E+06 1.70956E+05-2.36966E+06-1.60785E+06
 -1         7-7.08531E+06 6.67603E+06 3.74778E+06 1.70956E+05-2.36966E+06 1.60785E+06
 -1         8 7.08531E+06-6.67603E+06-3.74778E+06 1.70956E+05 2.36966E+06 1.60785E+06
 -1         9-3.44668E+07-2.70815E+07-1.24879E+08 4.01273E+06 8.02344E+07-2.21642E+08
 -1        10-4.46290E-06-6.54347E-06-2.07610E-05 2.58690E+06-6.54440E-06-2.17474E+08
 -1        11 3.44668E+07 2.70815E+07 1.24879E+08 4.01273E+06-8.02344E+07-2.21642E+08
 -1        12 5.58283E+07 2.82249E+07 1.76405E+08-6.51695E+06-1.94249E+08-1.12996E+08
 -1        13 6.11879E-07 1.48080E-06 5.71832E-06-1.84725E+07-2.28171E+08-1.18592E-06
 -1        14-5.58283E+07-2.82249E+07-1.76405E+08-6.51695E+06-1.94249E+08 1.12996E+08
 -1        15-3.44668E+07-2.70815E+07-1.24879E+08 4.01273E+06-8.02344E+07 2.21642E+08
 -1        16 6.07967E-06 7.81566E-06 2.22772E-05 2.58690E+06-6.44755E-06 2.17474E+08
 -1        17 3.44668E+07 2.70815E+07 1.24879E+08 4.01273E+06 8.02344E+07 2.21642E+08
 -1        18 5.58283E+07 2.82249E+07 1.76405E+08-6.51695E+06 1.94249E+08 1.12996E+08
 -1        19-1.27032E-06-1.43982E-06-3.82960E-06-1.84725E+07 2.28171E+08-5.74626E-07
 -1        20-5.58283E+07-2.82249E+07-1.76405E+08-6.51695E+06 1.94249E+08-1.12996E+08
 -1        21-9.75701E+06 5.47343E+06 8.26554E+06-3.18755E+06 1.36088E+06-2.62818E+06
 -1        22 7.70204E-07 2.60491E-06-3.46266E-06-6.54605E+06 5.13298E-06-3.64852E+06
 -1        23 9.75701E+06-5.47343E+06-8.26554E+06-3.18755E+06-1.36088E+06-2.62818E+06
 -1        24 5.05249E+06-6.70545E+06 9.81096E+06-7.38042E+06 1.18607E+07-2.54477E+06
 -1        25-4.30457E-06-3.34075E-05-2.41902E-05-1.49318E+07 2.60911E+07-2.14763E-06
 -1        26-5.05249E+06 6.70545E+06-9.81096E+06-7.38042E+06 1.18607E+07 2.54477E+06
 -1        27-9.75701E+06 5.47343E+06 8.26554E+06-3.18755E+06-1.36088E+06 2.62818E+06
 -1        28-1.65813E-05-6.64215E-05-2.46381E-05-6.54605E+06-2.90200E-06 3.64852E+06
 -1        29 9.75701E+06-5.47343E+06-8.26554E+06-3.18755E+06 1.36088E+06 2.62818E+06
 -1        30 5.05249E+06-6.70545E+06 9.81096E+06-7.38042E+06-1.18607E+07 2.54477E+06
 -1        31 1.23235E-05-3.54648E-06-3.27080E-06-1.49318E+07-2.60911E+07 1.97999E-06
 -1        32-5.05249E+06 6.70545E+06-9.81096E+06-7.38042E+06-1.18607E+07-2.54477E+06
 -1        33 3.58821E+07 1.16818E+07 1.21747E+08 3.21376E+06-1.22206E+08-1.22770E+08
 -1        34-2.11210E+07-2.49515E+07-3.76275E+07-8.32300E+05-6.77944E+07-2.97149E+07
 -1        35-1.17926E+07 5.22856E+06-4.93191E+07-1.58251E+06-4.96493E+07-3.40123E+07
 -1        36-4.08469E+06 5.28604E+06-7.90012E+07-7.48830E+05-4.60993E+07-3.47203E+07
 -1        37-2.04192E+06 4.02611E+06-8.14519E+07-7.99315E+05-1.52168E+07-1.30508E+07
 -1        38-7.49930E+06 2.71255E+06-8.66083E+07-1.18697E+06 1.56479E+07 1.33281E+07
 -1        39-5.44438E+06 3.87183E+06-7.46759E+07-1.19152E+06 4.12914E+07 2.99463E+07
 -1        40-4.05596E+06 2.73537E+06-6.38321E+07-6.88340E+05 6.57892E+07 4.76494E+07
 -1        41-2.36902E+06 1.94101E+06-4.13500E+07-5.56976E+05 8.03316E+07 5.78569E+07
 -1        42-1.46682E+06 8.50122E+05-1.92970E+07-4.26634E+05 9.43137E+07 6.85174E+07
 -1        43 3.38910E+05-2.16851E+05 6.03839E+06 2.65033E+05 9.22480E+07 6.65758E+07
 -1        44 2.53584E+06-8.81592E+05 3.19023E+07 1.24177E+06 8.97304E+07 6.46382E+07
 -1        45 3.30572E+06-3.61863E+06 4.54529E+07-4.24714E+05 7.37767E+07 5.30059E+07
 -1        46 4.34745E+06-1.87199E+06 5.83637E+07 9.32502E+05 5.71412E+07 3.86286E+07
 -1        47 5.90404E+06-2.45115E+06 2.61475E+07 2.17220E+06 2.68041E+07 1.70658E+07
 -1        48-5.90404E+06 2.45115E+06-2.61475E+07 2.17220E+06-2.68041E+07 1.70658E+07
 -1        49-4.34745E+06 1.87199E+06-5.83637E+07 9.32502E+05-5.71412E+07 3.86286E+07
 -1        50-3.30572E+06 3.61863E+06-4.54529E+07-4.24714E+05-7.37767E+07 5.30059E+07
 -1        51-2.53584E+06 8.81592E+05-3.19023E+07 1.24177E+06-8.97304E+07 6.46382E+07
 -1        52-3.38910E+05 2.16851E+05-6.03839E+06 2.65033E+05-9.22480E+07 6.65758E+07
 -1        53 1.46682E+06-8.50122E+05 1.92970E+07-4.26634E+05-9.43137E+07 6.85174E+07
 -1        54 2.36902E+06-1.94101E+06 4.13500E+07-5.56976E+05-8.03316E+07 5.78569E+07
 -1        55 4.05596E+06-2.73537E+06 6.38321E+07-6.88340E+05-6.57892E+07 4.76494E+07
 -1        56 5.44438E+06-3.87183E+06 7.46759E+07-1.19152E+06-4.12914E+07 2.99463E+07
 -1        57 7.49930E+06-2.71255E+06 8.66083E+07-1.18697E+06-1.56479E+07 1.33281E+07
 -1        58 2.04192E+06-4.02611E+06 8.14519E+07-7.99315E+05 1.52168E+07-1.30508E+07
 -1        59 4.08469E+06-5.28604E+06 7.90012E+07-7.48830E+05 4.60993E+07-3.47203E+07
 -1        60 1.17926E+07-5.22856E+06 4.93191E+07-1.58251E+06 4.96493E+07-3.40123E+07
 -1        61 2.11210E+07 2.49515E+07 3.76275E+07-8.32300E+05 6.77944E+07-2.97149E+07
 -1        62-3.58821E+07-1.16818E+07-1.21747E+08 3.21376E+06 1.22206E+08-1.22770E+08
 -1        63-3.58821E+07-1.16818E+07-1.21747E+08 3.21376E+06-1.22206E+08 1.22770E+08
 -1        64 2.11210E+07 2.49515E+07 3.76275E+07-8.32300E+05-6.77944E+07 2.97149E+07
 -1        65 1.17926E+07-5.22856E+06 4.93191E+07-1.58251E+06-4.96493E+07 3.40123E+07
 -1        66 4.08469E+06-5.28604E+06 7.90012E+07-7.48830E+05-4.60993E+07 3.47203E+07
 -1        67 2.04192E+06-4.02611E+06 8.14519E+07-7.99315E+05-1.52168E+07 1.30508E+07
 -1        68 7.49930E+06-2.71255E+06 8.66083E+07-1.18697E+06 1.56479E+07-1.33281E+07
 -1        69 5.44438E+06-3.87183E+06 7.46759E+07-1.19152E+06 4.12914E+07-2.99463E+07
 -1        70 4.05596E+06-2.73537E+06 6.38321E+07-6.88340E+05 6.57892E+07-4.76494E+07
 -1        71 2.36902E+06-1.94101E+06 4.13500E+07-5.56976E+05 8.03316E+07-5.78569E+07
 -1        72 1.46682E+06-8.50122E+05 1.92970E+07-4.26634E+05 9.43137E+07-6.85174E+07
 -1        73-3.38910E+05 2.16851E+05-6.03839E+06 2.65033E+05 9.22480E+07-6.65758E+07
 -1        74-2.53584E+06 8.81592E+05-3.19023E+07 1.24177E+06 8.97304E+07-6.46382E+07
 -1        75-3.30572E+06 3.61863E+06-4.54529E+07-4.24714E+05 7.37767E+07-5.30059E+07
 -1        76-4.34745E+06 1.87199E+06-5.83637E+07 9.32502E+05 5.71412E+07-3.86286E+07
 -1        77-5.90404E+06 2.45115E+06-2.61475E+07 2.17220E+06 2.68041E+07-1.70658E+07
 -1        78 3.58821E+07 1.16818E+07 1.21747E+08 3.21376E+06 1.22206E+08 1.22770E+08
 -1        79-2.11210E+07-2.49515E+07-3.76275E+07-8.32300E+05 6.77944E+07 2.97149E+07
 -1        80-1.17926E+07 5.22856E+06-4.93191E+07-1.58251E+06 4.96493E+07 3.40123E+07
 -1        81-4.08469E+06 5.28604E+06-7.90012E+07-7.48830E+05 4.60993E+07 3.47203E+07
 -1        82-2.04192E+06 4.02611E+06-8.14519E+07-7.99315E+05 1.52168E+07 1.30508E+07
 -1        83-7.49930E+06 2.71255E+06-8.66083E+07-1.18697E+06-1.56479E+07-1.33281E+07
 -1        84-5.44438E+06 3.87183E+06-7.46759E+07-1.19152E+06-4.12914E+07-2.99463E+07
 -1        85-4.05596E+06 2.73537E+06-6.38321E+07-6.88340E+05-6.57892E+07-4.76494E+07
 -1        86-2.36902E+06 1.94101E+06-4.13500E+07-5.56976E+05-8.03316E+07-5.78569E+07
 -1        87-1.46682E+06 8.50122E+05-1.92970E+07-4.26634E+05-9.43137E+07-6.85174E+07
 -1        88 3.38910E+05-2.16851E+05 6.03839E+06 2.65033E+05-9.22480E+07-6.65758E+07
 -1        89 2.53584E+06-8.81592E+05 3.19023E+07 1.24177E+06-8.97304E+07-6.46382E+07
 -1        90 3.30572E+06-3.61863E+06 4.54529E+07-4.24714E+05-7.37767E+07-5.30059E+07
 -1        91 4.34745E+06-1.87199E+06 5.83637E+07 9.32502E+05-5.71412E+07-3.86286E+07
 -1        92 5.90404E+06-2.45115E+06 2.61475E+07 2.17220E+06-2.68041E+07-1.70658E+07
 -1        93-2.18488E-06-2.66638E-06-9.90555E-06-9.36863E+06-5.90319E-06-1.08650E+08
 -1        94-1.10269E-06-8.86619E-07-2.34134E-06-1.98983E+07 1.14249E+08-4.96861E-07
 -1        95-1.05372E-06-4.31639E-07-1.01200E-06-2.13242E+07-5.18281E-06-3.83545E-07
 -1        96-2.79862E-07 4.74975E-07 2.27429E-06-1.98983E+07-1.14249E+08-7.66959E-07
 -1        97 1.93901E-06 2.87034E-06 9.65223E-06-9.36863E+06-5.77560E-06 1.08650E+08
 -1        98-4.04916E-06 1.21230E-05 3.43705E-06-3.15454E+07 3.99514E-06-3.59072E+06
 -1        99 1.09209E-06 1.15652E-05 3.80632E-06-3.57383E+07-1.23512E+07-9.75560E-08
 -1       100 3.52738E-07 3.23933E-05 1.60991E-05-5.65447E+07 4.28082E-06-1.34506E-06
 -1       101 3.27011E-06 2.35066E-06-1.43796E-06-3.57383E+07 1.23512E+07-1.33133E-06
 -1       102-3.50364E-06-1.16378E-05-1.38860E-06-3.15454E+07 1.40117E-06 3.59072E+06
 -1       103-3.48594E-06-3.93949E-06-1.15111E-05 3.26413E+06-2.99327E-06-2.81381E+08
 -1       104 1.07633E+06 9.58081E+06 1.75763E+07-1.96372E+04 2.52408E+07-1.81363E+08
 -1       105-3.92273E-06-8.86619E-07 1.13994E-06 7.93026E+05-5.72763E-07-3.33010E+08
 -1       106-1.07633E+06-9.58081E+06-1.75763E+07-1.96372E+04-2.52408E+07-1.81363E+08
 -1       107-2.44007E-07-4.74975E-08 1.03451E-05-1.80065E+06-5.49480E-07-2.31418E+08
 -1       108 1.24306E+07-2.21596E+06 3.34323E+07-1.36867E+05 2.04011E+07-8.40533E+07
 -1       109 3.77139E-06-6.46658E-07 1.41989E-05 4.75095E+05 1.76975E-06-1.33386E+08
 -1       110-1.24306E+07 2.21596E+06-3.34323E+07-1.36867E+05-2.04011E+07-8.40533E+07
 -1       111 9.11672E-06 5.35091E-06 2.01361E-05 1.90962E+06 4.98258E-07-4.02338E+07
 -1       112 8.50876E+06-2.68732E+06 3.70238E+07 5.45674E+04-6.80121E+06 3.09192E+07
 -1       113 1.54050E-05 1.31910E-05 2.35210E-05 1.29611E+06-2.27912E-06 4.85103E+07
 -1       114-8.50876E+06 2.68732E+06-3.70238E+07 5.45674E+04 6.80121E+06 3.09192E+07
 -1       115 1.39875E-05 9.38191E-06 1.18557E-05 8.47283E+05-6.95698E-07 1.37604E+08
 -1       116 6.83586E+06-1.97010E+06 2.73055E+07 1.53640E+05-2.78836E+07 1.36386E+08
 -1       117 1.43396E-05 5.91741E-06 4.74602E-06 9.95620E+05 8.26549E-07 2.25124E+08
 -1       118-6.83586E+06 1.97010E+06-2.73055E+07 1.53640E+05 2.78836E+07 1.36386E+08
 -1       119 7.26106E-06 4.66767E-06-8.02800E-06 6.80079E+05 9.24803E-07 2.73777E+08
 -1       120 2.00779E+06-6.81544E+05 8.22562E+06-1.04261E+05-4.00491E+07 1.94525E+08
 -1       121-4.05184E-06 1.60362E-06-2.06750E-05 2.18111E+05 3.28477E-06 3.20533E+08
 -1       122-2.00779E+06 6.81544E+05-8.22562E+06-1.04261E+05 4.00491E+07 1.94525E+08
 -1       123 9.57900E-06 1.07735E-05-1.45115E-05-6.82754E+04-8.84756E-08 3.14316E+08
 -1       124-3.48014E+06 9.26643E+05-1.34098E+07 6.00450E+05-3.80750E+07 1.85396E+08
 -1       125 2.97852E-05 2.45089E-05-7.96979E-06-4.08707E+04-2.99886E-07 3.06153E+08
 -1       126 3.48014E+06-9.26643E+05 1.34098E+07 6.00450E+05 3.80750E+07 1.85396E+08
 -1       127 1.26883E-05 1.02061E-06-1.50083E-05-9.21655E+05 1.24145E-06 2.43995E+08
 -1       128-6.52092E+06 1.55937E+06-2.37082E+07 9.63892E+05-2.45852E+07 1.07738E+08
 -1       129-1.12150E-05-2.69969E-05-1.83773E-05 9.95283E+05-5.38165E-06 1.76848E+08
 -1       130 6.52092E+06-1.55937E+06 2.37082E+07 9.63892E+05 2.45852E+07 1.07738E+08
 -1       131-6.63847E-06-1.24862E-05-8.80565E-06-1.15774E+06-1.69687E-06 8.35509E+07
 -1       132 4.75161E-06 2.73902E-06 5.68852E-06-1.40424E+07-2.91106E+08-7.30157E-07
 -1       133-9.82719E+06-1.24620E+07-1.33238E+07 3.40804E+05-2.19606E+08 6.76637E+06
 -1       134 7.89901E-06 3.36824E-06 6.06291E-06 1.51391E+06-3.71417E+08 2.96161E-07
 -1       135 9.82719E+06 1.24620E+07 1.33238E+07 3.40804E+05-2.19606E+08-6.76637E+06
 -1       136 3.70992E-06-1.01421E-06 2.56300E-06 9.02374E+06-2.84912E+08-1.89617E-06
 -1       137-4.03499E+06 5.43193E+06-5.53243E+07 1.69207E+06-1.11909E+08-9.26010E+06
 -1       138-7.00122E-07-7.88714E-06-3.02494E-06 4.13297E+06-1.77719E+08-8.95932E-07
 -1       139 4.03499E+06-5.43193E+06 5.53243E+07 1.69207E+06-1.11909E+08 9.26010E+06
 -1       140 6.40750E-07-3.06126E-06-3.00258E-06 5.20468E+06-5.52298E+07-1.12690E-07
 -1       141-6.50181E+06 2.80185E+06-5.84428E+07 3.24386E+06 4.11604E+07 3.51033E+06
 -1       142 9.45060E-07 1.11549E-06-3.59956E-06 7.67470E+06 6.66730E+07 1.39652E-06
 -1       143 6.50181E+06-2.80185E+06 5.84428E+07 3.24386E+06 4.11604E+07-3.51033E+06
 -1       144 2.67243E-05 7.75093E-06 9.89065E-07 6.57357E+06 1.81229E+08 1.38022E-06
 -1       145-3.78448E+06 3.04278E+06-4.33821E+07 2.13554E+06 1.80789E+08 9.27557E+06
 -1       146 5.25695E-05 1.76374E-05 6.63009E-06 4.95941E+06 2.95790E+08-2.32831E-08
 -1       147 3.78448E+06-3.04278E+06 4.33821E+07 2.13554E+06 1.80789E+08-9.27557E+06
 -1       148 2.16037E-05 1.69177E-05 7.94698E-06 3.20489E+06 3.59585E+08 8.19564E-08
 -1       149-1.31988E+06 8.40744E+05-1.31370E+07 5.30846E+05 2.57926E+08 1.35782E+07
 -1       150-1.14737E-05 1.50979E-05 1.17160E-05 1.48833E+06 4.21538E+08-1.42492E-06
 -1       151 1.31988E+06-8.40744E+05 1.31370E+07 5.30846E+05 2.57926E+08-1.35782E+07
 -1       152-1.16932E-05 7.16140E-06 1.29039E-05-2.49017E+05 4.13371E+08 1.57952E-06
 -1       153 2.27665E+06-9.52194E+05 2.17365E+07-1.93320E+05 2.46688E+08 1.24079E+07
 -1       154-5.90179E-06 3.31260E-06 1.66893E-05-1.62841E+06 4.03646E+08 7.11530E-07
 -1       155-2.27665E+06 9.52194E+05-2.17365E+07-1.93320E+05 2.46688E+08-1.24079E+07
 -1       156-1.71082E-05-1.46334E-06 1.03191E-05-5.09595E+06 3.25847E+08 2.13273E-06
 -1       157 4.05919E+06-2.29186E+06 4.05509E+07-9.78423E+05 1.56360E+08 7.64654E+06
 -1       158-2.56945E-05-2.89571E-06 3.66103E-06-2.88935E+06 2.55579E+08 6.35162E-06
 -1       159-4.05919E+06 2.29186E+06-4.05509E+07-9.78423E+05 1.56360E+08-7.64654E+06
 -1       160-1.28318E-05-1.52451E-05-8.51415E-06-6.07008E+06 1.44267E+08 2.30502E-06
 -1       161 3.50364E-06 4.76744E-06 1.31652E-05 3.26413E+06-3.07243E-06 2.81381E+08
 -1       162 1.07633E+06 9.58081E+06 1.75763E+07-1.96372E+04-2.52408E+07 1.81363E+08
 -1       163 5.25359E-06 4.09037E-06 2.60957E-06 7.93026E+05 6.02566E-07 3.33010E+08
 -1       164-1.07633E+06-9.58081E+06-1.75763E+07-1.96372E+04 2.52408E+07 1.81363E+08
 -1       165 1.02352E-06-2.92435E-06-7.99634E-06-1.80065E+06-8.69855E-07 2.31418E+08
 -1       166 1.24306E+07-2.21596E+06 3.34323E+07-1.36867E+05-2.04011E+07 8.40533E+07
 -1       167-4.28082E-06-9.95229E-06-1.65645E-05 4.75095E+05-5.66011E-07 1.33386E+08
 -1       168-1.24306E+07 2.21596E+06-3.34323E+07-1.36867E+05 2.04011E+07 8.40533E+07
 -1       169 4.96116E-06 1.05028E-05-9.33930E-06 1.90962E+06 4.19444E-07 4.02338E+07
 -1       170 8.50876E+06-2.68732E+06 3.70238E+07 5.45674E+04 6.80121E+06-3.09192E+07
 -1       171 1.00061E-05 2.59342E-05-4.89969E-06 1.29611E+06-4.27128E-07-4.85103E+07
 -1       172-8.50876E+06 2.68732E+06-3.70238E+07 5.45674E+04-6.80121E+06-3.09192E+07
 -1       173 4.78141E-06 7.92486E-06-1.15111E-06 8.47283E+05 2.02144E-06-1.37604E+08
 -1       174 6.83586E+06-1.97010E+06 2.73055E+07 1.53640E+05 2.78836E+07-1.36386E+08
 -1       175 5.35557E-06-4.51966E-06 4.91692E-06 9.95620E+05 2.17697E-06-2.25124E+08
 -1       176-6.83586E+06 1.97010E+06-2.73055E+07 1.53640E+05-2.78836E+07-1.36386E+08
 -1       177-4.84474E-06 5.06244E-06 9.13907E-06 6.80079E+05-3.83705E-07-2.73777E+08
 -1       178 2.00779E+06-6.81544E+05 8.22562E+06-1.04261E+05 4.00491E+07-1.94525E+08
 -1       179-1.68771E-05 1.26446E-05 1.78461E-05 2.18111E+05-1.64798E-06-3.20533E+08
 -1       180-2.00779E+06 6.81544E+05-8.22562E+06-1.04261E+05-4.00491E+07-1.94525E+08
 -1       181-8.32113E-06-1.80950E-06 1.86596E-05-6.82754E+04-1.41189E-06-3.14316E+08
 -1       182-3.48014E+06 9.26643E+05-1.34098E+07 6.00450E+05 3.80750E+07-1.85396E+08
 -1       183-2.68756E-06-1.75199E-05 1.38297E-05-4.08707E+04 1.59349E-06-3.06153E+08
 -1       184 3.48014E+06-9.26643E+05 1.34098E+07 6.00450E+05-3.80750E+07-1.85396E+08
 -1       185 7.27875E-06-1.27373E-05 1.80434E-05-9.21655E+05-1.03004E-06-2.43995E+08
 -1       186-6.52092E+06 1.55937E+06-2.37082E+07 9.63892E+05 2.45852E+07-1.07738E+08
 -1       187 1.09023E-05-1.23923E-05 1.06222E-05 9.95283E+05-4.32180E-06-1.76848E+08
 -1       188 6.52092E+06-1.55937E+06 2.37082E+07 9.63892E+05-2.45852E+07-1.07738E+08
 -1       189-5.96233E-06-4.18047E-05-1.33440E-05-1.15774E+06-2.93739E-06-8.35509E+07
 -1       190 6.87316E-07 1.63168E-06-4.65661E-07-1.40424E+07 2.91106E+08-3.27826E-07
 -1       191-9.82719E+06-1.24620E+07-1.33238E+07 3.40804E+05 2.19606E+08-6.76637E+06
 -1       192 1.06404E-06 3.33786E-06-5.27129E-07 1.51391E+06 3.71417E+08 1.28523E-06
 -1       193 9.82719E+06 1.24620E+07 1.33238E+07 3.40804E+05 2.19606E+08 6.76637E+06
 -1       194 7.86968E-08-1.21072E-07-1.40071E-06 9.02374E+06 2.84912E+08-3.70666E-07
 -1       195-4.03499E+06 5.43193E+06-5.53243E+07 1.69207E+06 1.11909E+08 9.26010E+06
 -1       196-1.43761E-06-2.86754E-06 1.56462E-06 4.13297E+06 1.77719E+08-1.60513E-06
 -1       197 4.03499E+06-5.43193E+06 5.53243E+07 1.69207E+06 1.11909E+08-9.26010E+06
 -1       198-4.92809E-06 1.30245E-06 2.83308E-06 5.20468E+06 5.52298E+07-5.78351E-07
 -1       199-6.50181E+06 2.80185E+06-5.84428E+07 3.24386E+06-4.11604E+07-3.51033E+06
 -1       200-5.84405E-06 6.93696E-06 7.14138E-06 7.67470E+06-6.66730E+07-2.73343E-07
 -1       201 6.50181E+06-2.80185E+06 5.84428E+07 3.24386E+06-4.11604E+07 3.51033E+06
 -1       202-2.94298E-07-3.78350E-07 8.93325E-06 6.57357E+06-1.81229E+08 2.81446E-06
 -1       203-3.78448E+06 3.04278E+06-4.33821E+07 2.13554E+06-1.80789E+08-9.27557E+06
 -1       204 4.55764E-06-9.45735E-06 1.03158E-05 4.95941E+06-2.95790E+08 2.03960E-07
 -1       205 3.78448E+06-3.04278E+06 4.33821E+07 2.13554E+06-1.80789E+08 9.27557E+06
 -1       206 1.27701E-05 1.09472E-05 8.67154E-06 3.20489E+06-3.59585E+08 6.81728E-07
 -1       207-1.31988E+06 8.40744E+05-1.31370E+07 5.30846E+05-2.57926E+08-1.35782E+07
 -1       208 2.66040E-05 3.57870E-05 1.12052E-05 1.48833E+06-4.21538E+08 2.24449E-06
 -1       209 1.31988E+06-8.40744E+05 1.31370E+07 5.30846E+05-2.57926E+08 1.35782E+07
 -1       210 2.45376E-05 1.69550E-05-4.09782E-07-2.49017E+05-4.13371E+08 1.02818E-06
 -1       211 2.27665E+06-9.52194E+05 2.17365E+07-1.93320E+05-2.46688E+08-1.24079E+07
 -1       212 1.48255E-05-6.02822E-06-1.75769E-05-1.62841E+06-4.03646E+08 3.60236E-06
 -1       213-2.27665E+06 9.52194E+05-2.17365E+07-1.93320E+05-2.46688E+08 1.24079E+07
 -1       214 1.33854E-05-1.34977E-05-1.37892E-05-5.09595E+06-3.25847E+08 5.56931E-07
 -1       215 4.05919E+06-2.29186E+06 4.05509E+07-9.78423E+05-1.56360E+08-7.64654E+06
 -1       216 2.09324E-05-1.31873E-05-4.43868E-06-2.88935E+06-2.55579E+08-1.74064E-06
 -1       217-4.05919E+06 2.29186E+06-4.05509E+07-9.78423E+05-1.56360E+08 7.64654E+06
 -1       218 1.99918E-05-4.81145E-06-2.42144E-07-6.07008E+06-1.44267E+08 6.14673E-07
 -1       219-2.35968E-06-1.41026E-06-2.92785E-08-1.90424E+07-6.65104E-06-9.72301E-07
 -1       220-3.69083E-06-1.51759E-06 8.21427E-07-3.08418E+06-4.42378E-06-1.45066E+08
 -1       221 1.57626E-07 1.05301E-06 3.94881E-07-2.72374E+06 1.76927E+08 3.42727E-07
 -1       222-4.47524E-06-2.19198E-06 5.28526E-08-6.96139E+06-8.58726E-06-3.16650E-08
 -1       223-1.51107E-07 1.08063E-07 2.42610E-06-2.72374E+06-1.76927E+08 4.15370E-07
 -1       224-1.18744E-07 9.27132E-07 1.10548E-06-3.08418E+06-4.14997E-06 1.45066E+08
 -1       225-3.35049E-06 9.81439E-07-2.38593E-07 1.56729E+07-4.88013E-06-1.59256E-07
 -1       226-6.70436E-07-3.39700E-07 5.79329E-06 1.48336E+07-1.00257E-06-5.88119E+07
 -1       227-1.45455E-06 5.92088E-07 1.14040E-06 1.66626E+07 8.60384E+07-6.98492E-07
 -1       228-2.22842E-06 4.35510E-06 3.40457E-07 2.91922E+07-2.76277E-06 1.79978E-07
 -1       229-1.84274E-06-1.61445E-06-1.53016E-06 1.66626E+07-8.60384E+07-3.72063E-07
 -1       230-1.81247E-06-6.04661E-07-6.63567E-06 1.48336E+07-1.15833E-06 5.88119E+07
 -1       231-2.66824E-06-4.77210E-06-2.03925E-06 3.00595E+07 9.26782E-07-1.11014E-06
 -1       232 9.49868E-06 6.29784E-06 1.25384E-05 1.59551E+07 1.42725E-06 2.11723E+07
 -1       233 5.02449E-07-2.18186E-06 3.68292E-06 1.91444E+07-3.22839E+07-2.55229E-06
 -1       234-2.49001E-06-1.37033E-05-3.38553E-06 3.06141E+07 4.24183E-06-4.54276E-06
 -1       235-5.44195E-06-7.49528E-06-5.29690E-06 1.91444E+07 3.22839E+07-1.42888E-06
 -1       236 7.16886E-07-4.38420E-07-6.61332E-06 1.59551E+07 1.46142E-06-2.11723E+07
 -1       237-1.58648E-05-1.10277E-05-7.72672E-06 2.70551E+07 6.48643E-06-4.68455E-07
 -1       238-9.33313E-06-1.76980E-06-4.11668E-06 1.20340E+07 4.54346E-06 9.81111E+07
 -1       239-1.39512E-06-3.15160E-06 4.17372E-06 1.40159E+07-1.42789E+08 7.05943E-07
 -1       240-2.96733E-05-7.52922E-06-1.14868E-05 2.30724E+07 9.32976E-06 1.59349E-06
 -1       241 2.85334E-07-2.87313E-07-7.18702E-06 1.40159E+07 1.42789E+08 9.77889E-07
 -1       242-1.04925E-05-5.06052E-06-2.53867E-06 1.20340E+07 6.28736E-06-9.81111E+07
 -1       243-1.43789E-05-5.78584E-06-5.44981E-06 1.51559E+07 5.23264E-06 2.67290E-06
 -1       244-2.05764E-07 1.17875E-06-1.06093E-05 3.67502E+06 3.35416E-06 1.39755E+08
 -1       245 6.51821E-06 1.00888E-05-6.74045E-08 4.31013E+06-2.03511E+08 3.35835E-06
 -1       246-1.92208E-06-8.62917E-06-5.85879E-06 7.13192E+06 3.85009E-06 5.18374E-06
 -1       247-8.75210E-07 6.72450E-06 5.66908E-06 4.31013E+06 2.03511E+08 2.23704E-06
 -1       248-1.21809E-05-2.68382E-06 3.33588E-06 3.67502E+06 1.31456E-06-1.39755E+08
 -1       249-3.44004E-06-5.21526E-06-2.53662E-06-2.52786E+06 4.89410E-07 2.03215E-06
 -1       250 1.13363E-05 1.00398E-05-3.86243E-06-5.92092E+06-8.81031E-07 1.33306E+08
 -1       251 9.23057E-07-3.80600E-06-9.05478E-06-6.71468E+06-1.94962E+08 2.10106E-06
 -1       252-3.82707E-06 8.63918E-07 2.63000E-06-1.18010E+07-1.28755E-07-5.45755E-07
 -1       253-2.88244E-07 3.31222E-06 1.12415E-05-6.71468E+06 1.94962E+08-4.88013E-07
 -1       254-1.61451E-06-5.68130E-06 9.42242E-06-5.92092E+06 1.39885E-06-1.33306E+08
 -1       255-1.97988E-06 1.02829E-05 1.78465E-06-1.54561E+07-3.13111E-06-1.97440E-07
 -1       256-3.14461E-06-3.07709E-06-7.15768E-06-6.33389E+06-7.39424E-06 7.67961E+07
 -1       257 4.23711E-06-5.25499E-07-4.14858E-06-8.27621E+06-1.23560E+08-1.40723E-06
 -1       258 4.47058E-06 2.06311E-05 3.77814E-06-1.36631E+07-7.25617E-06-1.91433E-06
 -1       259-2.14757E-06 1.31149E-05 7.53766E-06-8.27621E+06 1.23560E+08 1.79932E-06
 -1       260 7.45902E-06 4.01353E-06 7.05873E-06-6.33389E+06-4.71342E-06-7.67961E+07
 -1       261 3.54578E-06 2.67238E-05 9.84943E-06-3.22663E+07-2.37254E-07-2.73483E-06
 -3
    1PSTEP                        19           1           1          
    1PGM                1.000000E+00                                  
    1PGK                4.887708E+06                                  
    1PHID                         -1                                  
    1PSUBC                         0                                  
    1PMODE                        10                                  
  100CL  110 3.51862E+02         261                     2   10MODAL      1
 -4  DISP        4    1
 -5  D1          1    2    1    0
 -5  D2          1    2    2    0
 -5  D3          1    2    3    0
 -5  ALL         1    2    0    0    1ALL
 -1         1 0.00000E+00 0.00000E+00 0.00000E+00
 -1         2 0.00000E+00 0.00000E+00 0.00000E+00
 -1         3 0.00000E+00 0.00000E+00 0.00000E+00
 -1         4 0.00000E+00 0.00000E+00 0.00000E+00
 -1         5 5.53614E-03 6.69382E-05 3.43905E-03
 -1         6 5.53614E-03-6.69382E-05-3.43905E-03
 -1         7 5.53614E-03 6.69382E-05-3.43905E-03
 -1         8 5.53614E-03-6.69382E-05 3.43905E-03
 -1         9 0.00000E+00 0.00000E+00 0.00000E+00
 -1        10 0.00000E+00 0.00000E+00 0.00000E+00
 -1        11 0.00000E+00 0.00000E+00 0.00000E+00
 -1        12 0.00000E+00 0.00000E+00 0.00000E+00
 -1        13 0.00000E+00 0.00000E+00 0.00000E+00
 -1        14 0.00000E+00 0.00000E+00 0.00000E+00
 -1        15 0.00000E+00 0.00000E+00 0.00000E+00
 -1        16 0.00000E+00 0.00000E+00 0.00000E+00
 -1        17 0.00000E+00 0.00000E+00 0.00000E+00
 -1        18 0.00000E+00 0.00000E+00 0.00000E+00
 -1        19 0.00000E+00 0.00000E+00 0.00000E+00
 -1        20 0.00000E+00 0.00000E+00 0.00000E+00
 -1        21 5.51811E-03 2.25428E-05 1.67468E-03
 -1        22 5.48538E-03-2.11419E-18 3.46945E-18
 -1        23 5.51811E-03-2.25428E-05-1.67468E-03
 -1        24 5.61341E-03-5.59440E-05-3.50169E-03
 -1        25 5.66815E-03 5.74627E-18-3.50604E-03
 -1        26 5.61341E-03 5.59440E-05-3.50169E-03
 -1        27 5.51811E-03 2.25428E-05-1.67468E-03
 -1        28 5.48538E-03-6.72205E-18-4.33681E-19
 -1        29 5.51811E-03-2.25428E-05 1.67468E-03
 -1        30 5.61341E-03-5.59440E-05 3.50169E-03
 -1        31 5.66815E-03-9.10730E-18 3.50604E-03
 -1        32 5.61341E-03 5.59440E-05 3.50169E-03
 -1        33-1.80116E-03 1.75211E-04 1.00009E-03
 -1        34-3.82097E-03-3.09644E-04 9.67162E-04
 -1        35-4.99835E-03-5.12219E-04-5.27087E-05
 -1        36-4.20798E-03-4.85326E-04-1.31914E-03
 -1        37-1.79972E-03-1.85297E-04-2.13803E-03
 -1        38 1.31518E-03 2.04055E-04-2.15460E-03
 -1        39 3.75489E-03 5.20319E-04-1.24655E-03
 -1        40 4.56435E-03 6.11793E-04 1.36395E-04
 -1        41 3.32835E-03 4.36265E-04 1.41550E-03
 -1        42 6.88713E-04 6.15164E-05 2.06226E-03
 -1        43-2.20563E-03-3.53401E-04 1.69027E-03
 -1        44-4.02202E-03-6.39033E-04 5.13189E-04
 -1        45-3.86027E-03-6.87427E-04-1.06720E-03
 -1        46-1.67897E-03-5.10944E-04-2.48731E-03
 -1        47 1.80166E-03-2.53288E-04-3.24342E-03
 -1        48 1.80166E-03 2.53288E-04 3.24342E-03
 -1        49-1.67897E-03 5.10944E-04 2.48731E-03
 -1        50-3.86027E-03 6.87427E-04 1.06720E-03
 -1        51-4.02202E-03 6.39033E-04-5.13189E-04
 -1        52-2.20563E-03 3.53401E-04-1.69027E-03
 -1        53 6.88713E-04-6.15164E-05-2.06226E-03
 -1        54 3.32835E-03-4.36265E-04-1.41550E-03
 -1        55 4.56435E-03-6.11793E-04-1.36395E-04
 -1        56 3.75489E-03-5.20319E-04 1.24655E-03
 -1        57 1.31518E-03-2.04055E-04 2.15460E-03
 -1        58-1.79972E-03 1.85297E-04 2.13803E-03
 -1        59-4.20798E-03 4.85326E-04 1.31914E-03
 -1        60-4.99835E-03 5.12219E-04 5.27087E-05
 -1        61-3.82097E-03 3.09644E-04-9.67162E-04
 -1        62-1.80116E-03-1.75211E-04-1.00009E-03
 -1        63-1.80116E-03-1.75211E-04 1.00009E-03
 -1        64-3.82097E-03 3.09644E-04 9.67162E-04
 -1        65-4.99835E-03 5.12219E-04-5.27087E-05
 -1        66-4.20798E-03 4.85326E-04-1.31914E-03
 -1        67-1.79972E-03 1.85297E-04-2.13803E-03
 -1        68 1.31518E-03-2.04055E-04-2.15460E-03
 -1        69 3.75489E-03-5.20319E-04-1.24655E-03
 -1        70 4.56435E-03-6.11793E-04 1.36395E-04
 -1        71 3.32835E-03-4.36265E-04 1.41550E-03
 -1        72 6.88713E-04-6.15164E-05 2.06226E-03
 -1        73-2.20563E-03 3.53401E-04 1.69027E-03
 -1        74-4.02202E-03 6.39033E-04 5.13189E-04
 -1        75-3.86027E-03 6.87427E-04-1.06720E-03
 -1        76-1.67897E-03 5.10944E-04-2.48731E-03
 -1        77 1.80166E-03 2.53288E-04-3.24342E-03
 -1        78-1.80116E-03 1.75211E-04-1.00009E-03
 -1        79-3.82097E-03-3.09644E-04-9.67162E-04
 -1        80-4.99835E-03-5.12219E-04 5.27087E-05
 -1        81-4.20798E-03-4.85326E-04 1.31914E-03
 -1        82-1.79972E-03-1.85297E-04 2.13803E-03
 -1        83 1.31518E-03 2.04055E-04 2.15460E-03
 -1        84 3.75489E-03 5.20319E-04 1.24655E-03
 -1        85 4.56435E-03 6.11793E-04-1.36395E-04
 -1        86 3.32835E-03 4.36265E-04-1.41550E-03
 -1        87 6.88713E-04 6.15164E-05-2.06226E-03
 -1        88-2.20563E-03-3.53401E-04-1.69027E-03
 -1        89-4.02202E-03-6.39033E-04-5.13189E-04
 -1        90-3.86027E-03-6.87427E-04 1.06720E-03
 -1        91-1.67897E-03-5.10944E-04 2.48731E-03
 -1        92 1.80166E-03-2.53288E-04 3.24342E-03
 -1        93 0.00000E+00 0.00000E+00 0.00000E+00
 -1        94 0.00000E+00 0.00000E+00 0.00000E+00
 -1        95 0.00000E+00 0.00000E+00 0.00000E+00
 -1        96 0.00000E+00 0.00000E+00 0.00000E+00
 -1        97 0.00000E+00 0.00000E+00 0.00000E+00
 -1        98 5.56141E-03 1.76183E-18 5.63785E-18
 -1        99 5.66970E-03-8.45678E-18 1.72722E-03
 -1       100 5.64768E-03 3.79471E-18 2.60209E-18
 -1       101 5.66970E-03-3.44234E-18-1.72722E-03
 -1       102 5.56141E-03 1.30104E-18 1.30104E-18
 -1       103-1.68658E-03-6.50521E-18-4.98733E-18
 -1       104-3.93641E-03 1.52937E-04-2.76421E-04
 -1       105-4.02888E-03-1.21431E-17-5.20417E-18
 -1       106-3.93641E-03-1.52937E-04 2.76421E-04
 -1       107-5.07957E-03-1.66967E-17-2.16840E-18
 -1       108-4.37087E-03 2.45960E-04 5.73411E-04
 -1       109-4.41524E-03-1.66425E-17 4.33681E-19
 -1       110-4.37087E-03-2.45960E-04-5.73411E-04
 -1       111-1.83812E-03-1.46367E-17 3.90313E-18
 -1       112 1.36243E-03-1.02782E-04 9.16756E-04
 -1       113 1.36378E-03-6.50521E-18 7.80626E-18
 -1       114 1.36243E-03 1.02782E-04-9.16756E-04
 -1       115 3.90319E-03 6.50521E-19 6.07153E-18
 -1       116 4.72659E-03-3.08654E-04-5.02898E-05
 -1       117 4.75948E-03 5.52943E-18 6.07153E-18
 -1       118 4.72659E-03 3.08654E-04 5.02898E-05
 -1       119 3.44933E-03 6.83047E-18 8.67362E-19
 -1       120 7.03796E-04-3.12228E-05-8.51365E-04
 -1       121 7.03644E-04 4.44523E-18 2.60209E-18
 -1       122 7.03796E-04 3.12228E-05 8.51365E-04
 -1       123-2.30032E-03-1.30104E-18-8.67362E-19
 -1       124-4.19771E-03 3.21311E-04-1.84983E-04
 -1       125-4.24192E-03-8.89046E-18-2.16840E-19
 -1       126-4.19771E-03-3.21311E-04 1.84983E-04
 -1       127-4.05058E-03-9.32414E-18 3.03577E-18
 -1       128-1.81818E-03 2.56908E-04 1.13807E-03
 -1       129-1.86648E-03-1.24683E-17 9.10730E-18
 -1       130-1.81818E-03-2.56908E-04-1.13807E-03
 -1       131 1.74185E-03-5.74627E-18 7.37257E-18
 -1       132-1.85134E-03-3.04288E-17 1.02841E-03
 -1       133-3.69820E-03-1.59647E-04 1.08026E-03
 -1       134-3.64228E-03-5.51859E-17 1.01954E-03
 -1       135-3.69820E-03 1.59647E-04 1.08026E-03
 -1       136-4.63150E-03-7.61110E-17-4.67614E-05
 -1       137-3.93204E-03-2.29869E-04-1.36920E-03
 -1       138-3.88002E-03-9.21572E-17-1.33244E-03
 -1       139-3.93204E-03 2.29869E-04-1.36920E-03
 -1       140-1.66822E-03-9.15067E-17-2.17750E-03
 -1       141 1.19489E-03 9.84323E-05-2.25414E-03
 -1       142 1.16583E-03-8.71699E-17-2.18628E-03
 -1       143 1.19489E-03-9.84323E-05-2.25414E-03
 -1       144 3.38362E-03-6.52690E-17-1.27107E-03
 -1       145 4.21783E-03 2.96213E-04 1.47620E-04
 -1       146 4.13091E-03-4.07660E-17 1.40719E-04
 -1       147 4.21783E-03-2.96213E-04 1.47620E-04
 -1       148 3.01832E-03-2.90566E-17 1.44811E-03
 -1       149 6.53297E-04 2.89841E-05 2.17343E-03
 -1       150 6.46209E-04-1.99493E-17 2.09976E-03
 -1       151 6.53297E-04-2.89841E-05 2.17343E-03
 -1       152-1.94901E-03-1.10589E-17 1.73171E-03
 -1       153-3.65916E-03-3.11484E-04 5.58244E-04
 -1       154-3.56515E-03 5.96311E-19 5.31426E-04
 -1       155-3.65916E-03 3.11484E-04 5.58244E-04
 -1       156-3.35839E-03 4.33681E-19-1.07647E-03
 -1       157-1.38707E-03-2.54254E-04-2.55342E-03
 -1       158-1.29579E-03-2.71051E-18-2.50612E-03
 -1       159-1.38707E-03 2.54254E-04-2.55342E-03
 -1       160 2.01145E-03 4.11997E-18-3.28141E-03
 -1       161-1.68658E-03-7.75205E-18 1.11131E-18
 -1       162-3.93641E-03 1.52937E-04 2.76421E-04
 -1       163-4.02888E-03-1.56938E-17-8.67362E-19
 -1       164-3.93641E-03-1.52937E-04-2.76421E-04
 -1       165-5.07957E-03-1.77809E-17 8.67362E-19
 -1       166-4.37087E-03 2.45960E-04-5.73411E-04
 -1       167-4.41524E-03-2.12504E-17-6.07153E-18
 -1       168-4.37087E-03-2.45960E-04 5.73411E-04
 -1       169-1.83812E-03-1.51788E-17-9.54098E-18
 -1       170 1.36243E-03-1.02782E-04-9.16756E-04
 -1       171 1.36378E-03-9.75782E-18-7.37257E-18
 -1       172 1.36243E-03 1.02782E-04 9.16756E-04
 -1       173 3.90319E-03-2.16840E-18-1.21431E-17
 -1       174 4.72659E-03-3.08654E-04 5.02898E-05
 -1       175 4.75948E-03 3.90313E-18-6.50521E-18
 -1       176 4.72659E-03 3.08654E-04-5.02898E-05
 -1       177 3.44933E-03 7.37257E-18 1.51788E-18
 -1       178 7.03796E-04-3.12228E-05 8.51365E-04
 -1       179 7.03644E-04 4.55365E-18 3.63208E-18
 -1       180 7.03796E-04 3.12228E-05-8.51365E-04
 -1       181-2.30032E-03-2.38524E-18 5.85469E-18
 -1       182-4.19771E-03 3.21311E-04 1.84983E-04
 -1       183-4.24192E-03-9.10730E-18 4.77049E-18
 -1       184-4.19771E-03-3.21311E-04-1.84983E-04
 -1       185-4.05058E-03-9.97466E-18 2.16840E-18
 -1       186-1.81818E-03 2.56908E-04-1.13807E-03
 -1       187-1.86648E-03-1.55312E-17 9.97466E-18
 -1       188-1.81818E-03-2.56908E-04 1.13807E-03
 -1       189 1.74185E-03-1.14925E-17 1.30104E-18
 -1       190-1.85134E-03 1.81062E-17-1.02841E-03
 -1       191-3.69820E-03-1.59647E-04-1.08026E-03
 -1       192-3.64228E-03 2.46114E-17-1.01954E-03
 -1       193-3.69820E-03 1.59647E-04-1.08026E-03
 -1       194-4.63150E-03 4.27176E-17 4.67614E-05
 -1       195-3.93204E-03-2.29869E-04 1.36920E-03
 -1       196-3.88002E-03 5.14896E-17 1.33244E-03
 -1       197-3.93204E-03 2.29869E-04 1.36920E-03
 -1       198-1.66822E-03 6.22332E-17 2.17750E-03
 -1       199 1.19489E-03 9.84323E-05 2.25414E-03
 -1       200 1.16583E-03 6.63532E-17 2.18628E-03
 -1       201 1.19489E-03-9.84323E-05 2.25414E-03
 -1       202 3.38362E-03 6.60279E-17 1.27107E-03
 -1       203 4.21783E-03 2.96213E-04-1.47620E-04
 -1       204 4.13091E-03 5.50775E-17-1.40719E-04
 -1       205 4.21783E-03-2.96213E-04-1.47620E-04
 -1       206 3.01832E-03 4.61870E-17-1.44811E-03
 -1       207 6.53297E-04 2.89841E-05-2.17343E-03
 -1       208 6.46209E-04 2.90566E-17-2.09976E-03
 -1       209 6.53297E-04-2.89841E-05-2.17343E-03
 -1       210-1.94901E-03 7.37257E-18-1.73171E-03
 -1       211-3.65916E-03-3.11484E-04-5.58244E-04
 -1       212-3.56515E-03-9.54098E-18-5.31426E-04
 -1       213-3.65916E-03 3.11484E-04-5.58244E-04
 -1       214-3.35839E-03-2.03830E-17 1.07647E-03
 -1       215-1.38707E-03-2.54254E-04 2.55342E-03
 -1       216-1.29579E-03-2.89482E-17 2.50612E-03
 -1       217-1.38707E-03 2.54254E-04 2.55342E-03
 -1       218 2.01145E-03-2.16840E-17 3.28141E-03
 -1       219-1.70969E-03-6.99310E-18 1.62630E-19
 -1       220-3.91131E-03-1.04083E-17-2.60209E-18
 -1       221-3.75895E-03 5.90890E-18-3.57796E-04
 -1       222-3.85495E-03-1.18178E-17-6.50521E-19
 -1       223-3.75895E-03-3.42608E-17 3.57796E-04
 -1       224-3.91131E-03-1.45283E-17-6.50521E-19
 -1       225-4.74739E-03-1.88651E-17 4.33681E-19
 -1       226-4.14259E-03-1.51246E-17 8.67362E-19
 -1       227-4.05666E-03 1.85128E-17 6.09147E-04
 -1       228-4.10376E-03-1.36609E-17 8.67362E-19
 -1       229-4.05666E-03-5.05238E-17-6.09147E-04
 -1       230-4.14259E-03-1.77809E-17-4.33681E-18
 -1       231-1.72216E-03-1.52601E-17-1.73472E-18
 -1       232 1.24709E-03-7.58942E-18 1.73472E-18
 -1       233 1.21938E-03 2.74303E-17 9.92227E-04
 -1       234 1.22390E-03-8.02310E-18-2.16840E-18
 -1       235 1.21938E-03-4.66749E-17-9.92227E-04
 -1       236 1.24709E-03-9.18861E-18-5.20417E-18
 -1       237 3.55773E-03-0.00000E+00-0.00000E+00
 -1       238 4.42038E-03 7.58942E-18 4.77049E-18
 -1       239 4.30925E-03 3.17671E-17-5.91531E-05
 -1       240 4.34914E-03 6.01732E-18 4.33681E-19
 -1       241 4.30925E-03-1.59920E-17 5.91531E-05
 -1       242 4.42038E-03 4.11997E-18-2.16840E-18
 -1       243 3.16237E-03 7.91468E-18-4.33681E-19
 -1       244 6.70309E-04 3.14419E-18 1.30104E-18
 -1       245 6.64889E-04 1.21431E-17-9.36470E-04
 -1       246 6.66695E-04 4.28260E-18 1.30104E-18
 -1       247 6.64889E-04-9.54098E-18 9.36470E-04
 -1       248 6.70309E-04 3.30682E-18 1.40946E-18
 -1       249-2.06021E-03-1.73472E-18 4.11997E-18
 -1       250-3.88355E-03-5.36680E-18 3.68629E-18
 -1       251-3.75203E-03-6.72205E-18-2.20655E-04
 -1       252-3.79942E-03-6.83047E-18 3.46945E-18
 -1       253-3.75203E-03-5.33631E-18 2.20655E-04
 -1       254-3.88355E-03-5.63785E-18 3.46945E-18
 -1       255-3.57596E-03-9.10730E-18 4.33681E-18
 -1       256-1.57028E-03-1.43115E-17 4.77049E-18
 -1       257-1.43361E-03-1.79435E-17 1.18537E-03
 -1       258-1.47900E-03-1.13773E-17 4.33681E-18
 -1       259-1.43361E-03-4.55365E-18-1.18537E-03
 -1       260-1.57028E-03-1.01915E-17 8.23994E-18
 -1       261 1.95439E-03-1.02457E-17 6.93889E-18
 -3
    1PSTEP                        20           1           1          
    1PGM                1.000000E+00                                  
    1PGK                4.887708E+06                                  
    1PHID                         -1                                  
    1PSUBC                         0                                  
    1PMODE                        10                                  
  100CL  110 3.51862E+02         261                     2   10MODAL      1
 -4  STRESS      6    1
 -5  SXX         1    4    1    1
 -5  SYY         1    4    2    2
 -5  SZZ         1    4    3    3
 -5  SXY         1    4    1    2
 -5  SYZ         1    4    2    3
 -5  SZX         1    4    3    1
 -1         1-2.39854E+08-2.39534E+08-7.63945E+08 2.55250E+07-8.16103E+07-2.16484E+08
 -1         2 2.39854E+08 2.39534E+08 7.63945E+08 2.55250E+07 8.16103E+07-2.16484E+08
 -1         3 2.39854E+08 2.39534E+08 7.63945E+08-2.55250E+07-8.16103E+07-2.16484E+08
 -1         4-2.39854E+08-2.39534E+08-7.63945E+08-2.55250E+07 8.16103E+07-2.16484E+08
 -1         5-4.97384E+06 4.30621E+06-3.10877E+07-4.96403E+05-2.95056E+06 3.97853E+06
 -1         6 4.97384E+06-4.30621E+06 3.10877E+07-4.96403E+05 2.95056E+06 3.97853E+06
 -1         7 4.97384E+06-4.30621E+06 3.10877E+07 4.96403E+05-2.95056E+06 3.97853E+06
 -1         8-4.97384E+06 4.30621E+06-3.10877E+07 4.96403E+05 2.95056E+06 3.97853E+06
 -1         9-7.03751E+07-9.37499E+07-3.44800E+08 2.65818E+07-4.08561E+07-1.89655E+08
 -1        10-2.60770E-07-1.34483E-06-3.64333E-06 2.76386E+07-7.75908E-07-1.62825E+08
 -1        11 7.03751E+07 9.37499E+07 3.44800E+08 2.65818E+07 4.08561E+07-1.89655E+08
 -1        12 2.40224E+08 2.43075E+08 7.75378E+08 7.75410E+06 4.07521E+07-2.31659E+08
 -1        13 2.40595E+08 2.46616E+08 7.86810E+08-5.68107E-08-5.47944E-06-2.46834E+08
 -1        14 2.40224E+08 2.43075E+08 7.75378E+08-7.75410E+06-4.07521E+07-2.31659E+08
 -1        15 7.03751E+07 9.37499E+07 3.44800E+08-2.65818E+07-4.08561E+07-1.89655E+08
 -1        16 4.17233E-07 7.97212E-07 1.46776E-06-2.76386E+07-1.17254E-06-1.62825E+08
 -1        17-7.03751E+07-9.37499E+07-3.44800E+08-2.65818E+07 4.08561E+07-1.89655E+08
 -1        18-2.40224E+08-2.43075E+08-7.75378E+08-7.75410E+06 4.07521E+07-2.31659E+08
 -1        19-2.40595E+08-2.46616E+08-7.86810E+08-3.72529E-07 4.22454E-06-2.46834E+08
 -1        20-2.40224E+08-2.43075E+08-7.75378E+08 7.75410E+06-4.07521E+07-2.31659E+08
 -1        21-1.40192E+07-2.66888E+05-1.54801E+07 4.14276E+06-1.12429E+06 2.83972E+07
 -1        22-1.06003E-05-3.48035E-06-5.88968E-06 8.78192E+06 1.21456E-06 5.28159E+07
 -1        23 1.40192E+07 2.66888E+05 1.54801E+07 4.14276E+06 1.12429E+06 2.83972E+07
 -1        24 5.31822E+06 2.15910E+07 3.31621E+07 1.66520E+06 2.99890E+06 2.70401E+06
 -1        25 5.66259E+06 4.74882E+07 3.52365E+07-8.14442E-07-1.11829E-06 1.42949E+06
 -1        26 5.31822E+06 2.15910E+07 3.31621E+07-1.66520E+06-2.99890E+06 2.70401E+06
 -1        27 1.40192E+07 2.66888E+05 1.54801E+07-4.14276E+06-1.12429E+06 2.83972E+07
 -1        28 9.76026E-07-4.63752E-06 1.52737E-07-8.78192E+06-1.32271E-06 5.28159E+07
 -1        29-1.40192E+07-2.66888E+05-1.54801E+07-4.14276E+06 1.12429E+06 2.83972E+07
 -1        30-5.31822E+06-2.15910E+07-3.31621E+07-1.66520E+06 2.99890E+06 2.70401E+06
 -1        31-5.66259E+06-4.74882E+07-3.52365E+07 3.90294E-06 3.38163E-06 1.42949E+06
 -1        32-5.31822E+06-2.15910E+07-3.31621E+07 1.66520E+06-2.99890E+06 2.70401E+06
 -1        33 8.51884E+07 7.46917E+07 2.34228E+08 1.65097E+07-1.49521E+06-1.02080E+08
 -1        34-5.87768E+07-5.74451E+07-3.35536E+08-7.37041E+06-4.45626E+07-1.12089E+07
 -1        35-3.52790E+07-1.49916E+07-4.72373E+08-9.08940E+06-2.08631E+06-3.31791E+06
 -1        36 5.19460E+06 8.20103E+06-5.30224E+08 5.26886E+06 8.74971E+06 1.96783E+07
 -1        37 1.94366E+06 2.92203E+06-1.69211E+08 5.84097E+05 2.08115E+07 3.17188E+07
 -1        38-4.89189E+06-4.54779E+06 2.15143E+08-1.23841E+06 2.44855E+07 4.46551E+07
 -1        39 1.12105E+07 2.35517E+06 4.73172E+08 1.47322E+06 1.24839E+07 2.14634E+07
 -1        40 3.13392E+06-2.29437E+06 6.64037E+08-2.97646E+05-2.89914E+06-4.35003E+06
 -1        41 1.17656E+07 3.34849E+06 3.97967E+08 1.83722E+06-1.65711E+07-2.89137E+07
 -1        42-2.27606E+05-5.08153E+05 7.37388E+07-1.03016E+05-2.71723E+07-4.56427E+07
 -1        43-7.45040E+06-1.95543E+06-3.20886E+08-1.19121E+06-2.12194E+07-3.69337E+07
 -1        44-9.14321E+05 3.47569E+06-6.70113E+08 7.93565E+05-1.12944E+07-1.96129E+07
 -1        45-1.35931E+07-3.64239E+06-6.23424E+08-1.95391E+06 4.44241E+06 8.32838E+06
 -1        46-3.91681E+06 1.87551E+06-4.96032E+08 2.82230E+04 1.72292E+07 3.17344E+07
 -1        47 8.22933E+06 3.64284E+06-2.00944E+08 1.42575E+06 1.04506E+07 1.87348E+07
 -1        48-8.22933E+06-3.64284E+06 2.00944E+08 1.42575E+06-1.04506E+07 1.87348E+07
 -1        49 3.91681E+06-1.87551E+06 4.96032E+08 2.82230E+04-1.72292E+07 3.17344E+07
 -1        50 1.35931E+07 3.64239E+06 6.23424E+08-1.95391E+06-4.44241E+06 8.32838E+06
 -1        51 9.14321E+05-3.47569E+06 6.70113E+08 7.93565E+05 1.12944E+07-1.96129E+07
 -1        52 7.45040E+06 1.95543E+06 3.20886E+08-1.19121E+06 2.12194E+07-3.69337E+07
 -1        53 2.27606E+05 5.08153E+05-7.37388E+07-1.03016E+05 2.71723E+07-4.56427E+07
 -1        54-1.17656E+07-3.34849E+06-3.97967E+08 1.83722E+06 1.65711E+07-2.89137E+07
 -1        55-3.13392E+06 2.29437E+06-6.64037E+08-2.97646E+05 2.89914E+06-4.35003E+06
 -1        56-1.12105E+07-2.35517E+06-4.73172E+08 1.47322E+06-1.24839E+07 2.14634E+07
 -1        57 4.89189E+06 4.54779E+06-2.15143E+08-1.23841E+06-2.44855E+07 4.46551E+07
 -1        58-1.94366E+06-2.92203E+06 1.69211E+08 5.84097E+05-2.08115E+07 3.17188E+07
 -1        59-5.19460E+06-8.20103E+06 5.30224E+08 5.26886E+06-8.74971E+06 1.96783E+07
 -1        60 3.52790E+07 1.49916E+07 4.72373E+08-9.08940E+06 2.08631E+06-3.31791E+06
 -1        61 5.87768E+07 5.74451E+07 3.35536E+08-7.37041E+06 4.45626E+07-1.12089E+07
 -1        62-8.51884E+07-7.46917E+07-2.34228E+08 1.65097E+07 1.49521E+06-1.02080E+08
 -1        63 8.51884E+07 7.46917E+07 2.34228E+08-1.65097E+07 1.49521E+06-1.02080E+08
 -1        64-5.87768E+07-5.74451E+07-3.35536E+08 7.37041E+06 4.45626E+07-1.12089E+07
 -1        65-3.52790E+07-1.49916E+07-4.72373E+08 9.08940E+06 2.08631E+06-3.31791E+06
 -1        66 5.19460E+06 8.20103E+06-5.30224E+08-5.26886E+06-8.74971E+06 1.96783E+07
 -1        67 1.94366E+06 2.92203E+06-1.69211E+08-5.84097E+05-2.08115E+07 3.17188E+07
 -1        68-4.89189E+06-4.54779E+06 2.15143E+08 1.23841E+06-2.44855E+07 4.46551E+07
 -1        69 1.12105E+07 2.35517E+06 4.73172E+08-1.47322E+06-1.24839E+07 2.14634E+07
 -1        70 3.13392E+06-2.29437E+06 6.64037E+08 2.97646E+05 2.89914E+06-4.35003E+06
 -1        71 1.17656E+07 3.34849E+06 3.97967E+08-1.83722E+06 1.65711E+07-2.89137E+07
 -1        72-2.27606E+05-5.08153E+05 7.37388E+07 1.03016E+05 2.71723E+07-4.56427E+07
 -1        73-7.45040E+06-1.95543E+06-3.20886E+08 1.19121E+06 2.12194E+07-3.69337E+07
 -1        74-9.14321E+05 3.47569E+06-6.70113E+08-7.93565E+05 1.12944E+07-1.96129E+07
 -1        75-1.35931E+07-3.64239E+06-6.23424E+08 1.95391E+06-4.44241E+06 8.32838E+06
 -1        76-3.91681E+06 1.87551E+06-4.96032E+08-2.82230E+04-1.72292E+07 3.17344E+07
 -1        77 8.22933E+06 3.64284E+06-2.00944E+08-1.42575E+06-1.04506E+07 1.87348E+07
 -1        78-8.51884E+07-7.46917E+07-2.34228E+08-1.65097E+07-1.49521E+06-1.02080E+08
 -1        79 5.87768E+07 5.74451E+07 3.35536E+08 7.37041E+06-4.45626E+07-1.12089E+07
 -1        80 3.52790E+07 1.49916E+07 4.72373E+08 9.08940E+06-2.08631E+06-3.31791E+06
 -1        81-5.19460E+06-8.20103E+06 5.30224E+08-5.26886E+06 8.74971E+06 1.96783E+07
 -1        82-1.94366E+06-2.92203E+06 1.69211E+08-5.84097E+05 2.08115E+07 3.17188E+07
 -1        83 4.89189E+06 4.54779E+06-2.15143E+08 1.23841E+06 2.44855E+07 4.46551E+07
 -1        84-1.12105E+07-2.35517E+06-4.73172E+08-1.47322E+06 1.24839E+07 2.14634E+07
 -1        85-3.13392E+06 2.29437E+06-6.64037E+08 2.97646E+05-2.89914E+06-4.35003E+06
 -1        86-1.17656E+07-3.34849E+06-3.97967E+08-1.83722E+06-1.65711E+07-2.89137E+07
 -1        87 2.27606E+05 5.08153E+05-7.37388E+07 1.03016E+05-2.71723E+07-4.56427E+07
 -1        88 7.45040E+06 1.95543E+06 3.20886E+08 1.19121E+06-2.12194E+07-3.69337E+07
 -1        89 9.14321E+05-3.47569E+06 6.70113E+08-7.93565E+05-1.12944E+07-1.96129E+07
 -1        90 1.35931E+07 3.64239E+06 6.23424E+08 1.95391E+06 4.44241E+06 8.32838E+06
 -1        91 3.91681E+06-1.87551E+06 4.96032E+08-2.82230E+04 1.72292E+07 3.17344E+07
 -1        92-8.22933E+06-3.64284E+06 2.00944E+08-1.42575E+06 1.04506E+07 1.87348E+07
 -1        93-5.81145E-07-9.05246E-07-1.96695E-06 9.86774E+06-9.14268E-07-1.73437E+08
 -1        94-6.74260E+07-9.71417E+07-3.59055E+08-6.98492E-07 1.51203E-06-2.15441E+08
 -1        95-3.16650E-07-5.96046E-08-2.60770E-08-7.38073E-07-1.21229E-06-1.84048E+08
 -1        96 6.74260E+07 9.71417E+07 3.59055E+08-2.54251E-07-3.35177E-06-2.15441E+08
 -1        97 3.42727E-07 5.73695E-07 8.56817E-07-9.86774E+06-1.27224E-06-1.73437E+08
 -1        98 3.24100E-07-1.86265E-08-1.29361E-06 1.09435E+07 1.75973E-06 4.26327E+07
 -1        99-1.43114E+07-2.65767E+07-1.89818E+07 7.46921E-07 2.47255E-06 1.69395E+07
 -1       100 8.56072E-06 3.36603E-06 1.94414E-06-1.46311E-06 1.59803E-06 3.24494E+07
 -1       101 1.43114E+07 2.65767E+07 1.89818E+07-6.66827E-07 2.57161E-07 1.69395E+07
 -1       102 3.42354E-06-6.73346E-07 3.69269E-07-1.09435E+07-2.15776E-07 4.26327E+07
 -1       103-2.65986E-06-9.48086E-07-2.30223E-06 1.89761E+07-2.09664E-07-2.52881E+08
 -1       104 1.39313E+07 2.12976E+07 1.57887E+08-6.92108E+06 2.03447E+07-1.56628E+08
 -1       105-4.35859E-06-3.48315E-07-5.96046E-08-6.47175E+06-1.16532E-07-3.02047E+08
 -1       106-1.39313E+07-2.12976E+07-1.57887E+08-6.92108E+06-2.03447E+07-1.56628E+08
 -1       107-1.59442E-06 3.48315E-07 1.23307E-06-1.24168E+07-3.27243E-07-8.10337E+07
 -1       108 1.49178E+07-1.17496E+06 2.58372E+08 2.66824E+06-3.31548E+06 7.36502E+07
 -1       109-1.73226E-07 8.28877E-07 1.23130E-06 6.76152E+04-9.51113E-08 1.27622E+08
 -1       110-1.49178E+07 1.17496E+06-2.58372E+08 2.66824E+06 3.31548E+06 7.36502E+07
 -1       111 1.18837E-06 8.11648E-07 1.62050E-06-1.47863E+06-8.80100E-08 2.11462E+08
 -1       112-1.48673E+06 1.86659E+06-1.05230E+08-5.29454E+05-1.01836E+07 1.55222E+08
 -1       113 2.22820E-06 1.09430E-07 1.02259E-06 1.79497E+05 4.17931E-08 2.65789E+08
 -1       114 1.48673E+06-1.86659E+06 1.05230E+08-5.29454E+05 1.01836E+07 1.55222E+08
 -1       115 1.21072E-08 1.35880E-06 3.83705E-07 5.04565E+06 4.01633E-07 1.25302E+08
 -1       116-9.30669E+06 2.03967E+06-3.22159E+08 2.16501E+06 1.21291E+06-1.74416E+07
 -1       117-1.11200E-06 2.46720E-06-1.53575E-06 4.62767E+06 5.90313E-07-3.05331E+07
 -1       118 9.30669E+06-2.03967E+06 3.22159E+08 2.16501E+06-1.21291E+06-1.74416E+07
 -1       119 1.08406E-06 1.06916E-06-4.33996E-07 5.04906E+06-1.08732E-07-1.71010E+08
 -1       120-1.06378E+06 4.16717E+05-3.52940E+07 2.85719E+05 1.12654E+07-1.70745E+08
 -1       121 3.36440E-06-3.95346E-07 1.12224E-06 6.74453E+05-6.29574E-07-2.95848E+08
 -1       122 1.06378E+06-4.16717E+05 3.52940E+07 2.85719E+05-1.12654E+07-1.70745E+08
 -1       123 1.65822E-06 8.33301E-07 4.16301E-07-2.96528E+06 1.83936E-07-2.18146E+08
 -1       124 9.27550E+06-1.43517E+06 3.27802E+08-1.17629E+06 4.71954E+06-6.94823E+07
 -1       125-1.17486E-06 2.39821E-06 6.06291E-07-3.14614E+06 6.93370E-07-1.19352E+08
 -1       126-9.27550E+06 1.43517E+06-3.27802E+08-1.17629E+06-4.71954E+06-6.94823E+07
 -1       127-1.15065E-06-7.31088E-08 7.84174E-07-5.13511E+06-8.18982E-07 3.28675E+07
 -1       128 5.17378E+06-1.05078E+06 2.44867E+08-8.63885E+05-7.42550E+06 1.06827E+08
 -1       129 8.77306E-07-2.48058E-06 9.75095E-07-1.75599E+06-1.07836E-06 1.81920E+08
 -1       130-5.17378E+06 1.05078E+06-2.44867E+08-8.63885E+05 7.42550E+06 1.06827E+08
 -1       131-4.31761E-06-3.23355E-06-3.10969E-06 5.31062E+06 5.92205E-07 1.25985E+08
 -1       132 8.80522E+07 8.80303E+07 2.57814E+08-5.37839E-07-6.42985E-06-1.00954E+08
 -1       133-5.90214E+07-5.32662E+07-3.39374E+08-1.94855E+06-3.62314E+07 1.86992E+06
 -1       134-5.92660E+07-4.90873E+07-3.43213E+08-2.19792E-07-7.23638E-06 1.49487E+07
 -1       135-5.90214E+07-5.32662E+07-3.39374E+08 1.94855E+06 3.62314E+07 1.86992E+06
 -1       136-3.51893E+07-3.31974E+07-5.03398E+08 7.31088E-07-5.72111E-06 1.63914E+06
 -1       137 5.94718E+06-1.02369E+07-5.44674E+08-5.34382E+05 1.14319E+07 1.47979E+07
 -1       138 6.69976E+06-2.86748E+07-5.59123E+08 7.17584E-07-3.55579E-06 9.91743E+06
 -1       139 5.94718E+06-1.02369E+07-5.44674E+08 5.34382E+05-1.14319E+07 1.47979E+07
 -1       140 2.28715E+06-1.09343E+07-1.81401E+08-3.77651E-07-9.16421E-07 1.67477E+07
 -1       141-4.78109E+06 1.06694E+06 2.20327E+08 3.50057E+05 2.56225E+07 3.55133E+07
 -1       142-4.67030E+06 6.68168E+06 2.25510E+08-1.13097E-06 1.84309E-06 2.63715E+07
 -1       143-4.78109E+06 1.06694E+06 2.20327E+08-3.50057E+05-2.56225E+07 3.55133E+07
 -1       144 9.79984E+06 2.36471E+07 4.95984E+08 7.11065E-07 4.89783E-06 1.24004E+07
 -1       145 3.36717E+06 1.39350E+07 6.81751E+08 1.38248E+06-2.88844E+06-3.36406E+06
 -1       146 3.60042E+06 3.01644E+07 6.99466E+08 2.08558E-06 6.34353E-06-2.37809E+06
 -1       147 3.36717E+06 1.39350E+07 6.81751E+08-1.38248E+06 2.88844E+06-3.36406E+06
 -1       148 1.05409E+07 2.19746E+07 4.18506E+08 1.21968E-06 4.13787E-06-1.65035E+07
 -1       149-2.10038E+05 2.28283E+06 7.64014E+07 2.38503E+05-2.83980E+07-3.56958E+07
 -1       150-1.92469E+05 5.07380E+06 7.90640E+07 6.12345E-08 2.92528E-06-2.57488E+07
 -1       151-2.10038E+05 2.28283E+06 7.64014E+07-2.38503E+05 2.83980E+07-3.56958E+07
 -1       152-6.38261E+06-1.23704E+07-3.33307E+08-1.75787E-07 3.10503E-06-2.09122E+07
 -1       153-8.22581E+05-1.01099E+07-6.85504E+08-1.31005E+06-1.13296E+07-1.54029E+07
 -1       154-7.30841E+05-2.36954E+07-7.00895E+08-1.39815E-07 2.65008E-06-1.11929E+07
 -1       155-8.22581E+05-1.01099E+07-6.85504E+08 1.31005E+06 1.13296E+07-1.54029E+07
 -1       156-1.26517E+07-2.01623E+07-6.44898E+08-6.71833E-07 7.05477E-07 5.20088E+06
 -1       157-3.41362E+06-4.47596E+05-4.99732E+08-3.07974E+05 1.79704E+07 2.54298E+07
 -1       158-2.91043E+06-2.77070E+06-5.03431E+08 5.48782E-07-5.40167E-07 1.91253E+07
 -1       159-3.41362E+06-4.47596E+05-4.99732E+08 3.07974E+05-1.79704E+07 2.54298E+07
 -1       160 9.20251E+06 2.77560E+07-2.00898E+08 5.88363E-07-6.50994E-07 1.07228E+07
 -1       161-6.63102E-07-1.30385E-07-4.61936E-07-1.89761E+07-1.21119E-06-2.52881E+08
 -1       162-1.39313E+07-2.12976E+07-1.57887E+08 6.92108E+06 2.03447E+07-1.56628E+08
 -1       163-1.57207E-06 1.34110E-07-1.60187E-07 6.47175E+06-6.67642E-07-3.02047E+08
 -1       164 1.39313E+07 2.12976E+07 1.57887E+08 6.92108E+06-2.03447E+07-1.56628E+08
 -1       165-2.49222E-06-1.22935E-06-2.30595E-06 1.24168E+07-1.40048E-07-8.10337E+07
 -1       166-1.49178E+07 1.17496E+06-2.58372E+08-2.66824E+06-3.31548E+06 7.36502E+07
 -1       167-5.21820E-06-4.43286E-06-6.11180E-06-6.76152E+04 4.17640E-07 1.27622E+08
 -1       168 1.49178E+07-1.17496E+06 2.58372E+08-2.66824E+06 3.31548E+06 7.36502E+07
 -1       169-2.32551E-06-1.34879E-06-8.13045E-07 1.47863E+06 5.96046E-07 2.11462E+08
 -1       170 1.48673E+06-1.86659E+06 1.05230E+08 5.29454E+05-1.01836E+07 1.55222E+08
 -1       171 2.22563E-06 8.78237E-07 2.77534E-07-1.79497E+05 2.95579E-07 2.65789E+08
 -1       172-1.48673E+06 1.86659E+06-1.05230E+08 5.29454E+05 1.01836E+07 1.55222E+08
 -1       173-2.28407E-06-1.23400E-06-2.08616E-07-5.04565E+06-1.65310E-07 1.25302E+08
 -1       174 9.30669E+06-2.03967E+06 3.22159E+08-2.16501E+06 1.21291E+06-1.74416E+07
 -1       175-2.35531E-06 8.07631E-08 4.22448E-06-4.62767E+06-4.52856E-08-3.05331E+07
 -1       176-9.30669E+06 2.03967E+06-3.22159E+08-2.16501E+06-1.21291E+06-1.74416E+07
 -1       177 3.58559E-08 1.44355E-06 1.81049E-06-5.04906E+06 3.83938E-07-1.71010E+08
 -1       178 1.06378E+06-4.16717E+05 3.52940E+07-2.85719E+05 1.12654E+07-1.70745E+08
 -1       179-9.88599E-07 1.71270E-06-1.00583E-07-6.74453E+05-8.56817E-08-2.95848E+08
 -1       180-1.06378E+06 4.16717E+05-3.52940E+07-2.85719E+05-1.12654E+07-1.70745E+08
 -1       181 2.41864E-06 6.57048E-07 1.05426E-06 2.96528E+06-4.60073E-07-2.18146E+08
 -1       182-9.27550E+06 1.43517E+06-3.27802E+08 1.17629E+06 4.71954E+06-6.94823E+07
 -1       183 2.45497E-06-2.11701E-06-2.79397E-07 3.14614E+06-1.06986E-07-1.19352E+08
 -1       184 9.27550E+06-1.43517E+06 3.27802E+08 1.17629E+06-4.71954E+06-6.94823E+07
 -1       185 2.66684E-06-2.33762E-06 2.20910E-06 5.13511E+06-9.65432E-07 3.28675E+07
 -1       186-5.17378E+06 1.05078E+06-2.44867E+08 8.63885E+05-7.42550E+06 1.06827E+08
 -1       187 1.26101E-06-4.35719E-06-1.03004E-06 1.75599E+06-1.06281E-06 1.81920E+08
 -1       188 5.17378E+06-1.05078E+06 2.44867E+08 8.63885E+05 7.42550E+06 1.06827E+08
 -1       189-8.53091E-07-5.84102E-06-3.65824E-06-5.31062E+06-5.40516E-07 1.25985E+08
 -1       190-8.80522E+07-8.80303E+07-2.57814E+08-2.86847E-07 3.96278E-06-1.00954E+08
 -1       191 5.90214E+07 5.32662E+07 3.39374E+08 1.94855E+06-3.62314E+07 1.86992E+06
 -1       192 5.92660E+07 4.90873E+07 3.43213E+08 4.40981E-07 5.33927E-06 1.49487E+07
 -1       193 5.90214E+07 5.32662E+07 3.39374E+08-1.94855E+06 3.62314E+07 1.86992E+06
 -1       194 3.51893E+07 3.31974E+07 5.03398E+08 6.93835E-07 4.53135E-06 1.63914E+06
 -1       195-5.94718E+06 1.02369E+07 5.44674E+08 5.34382E+05 1.14319E+07 1.47979E+07
 -1       196-6.69976E+06 2.86748E+07 5.59123E+08 4.70318E-07 2.87639E-06 9.91743E+06
 -1       197-5.94718E+06 1.02369E+07 5.44674E+08-5.34382E+05-1.14319E+07 1.47979E+07
 -1       198-2.28715E+06 1.09343E+07 1.81401E+08 3.83472E-07 9.72301E-07 1.67477E+07
 -1       199 4.78109E+06-1.06694E+06-2.20327E+08-3.50057E+05 2.56225E+07 3.55133E+07
 -1       200 4.67030E+06-6.68168E+06-2.25510E+08-4.43077E-07-1.38860E-06 2.63715E+07
 -1       201 4.78109E+06-1.06694E+06-2.20327E+08 3.50057E+05-2.56225E+07 3.55133E+07
 -1       202-9.79984E+06-2.36471E+07-4.95984E+08-8.08621E-07-3.20282E-06 1.24004E+07
 -1       203-3.36717E+06-1.39350E+07-6.81751E+08-1.38248E+06-2.88844E+06-3.36406E+06
 -1       204-3.60042E+06-3.01644E+07-6.99466E+08-8.42614E-07-4.71988E-06-2.37809E+06
 -1       205-3.36717E+06-1.39350E+07-6.81751E+08 1.38248E+06 2.88844E+06-3.36406E+06
 -1       206-1.05409E+07-2.19746E+07-4.18506E+08-7.67410E-07-5.04125E-06-1.65035E+07
 -1       207 2.10038E+05-2.28283E+06-7.64014E+07-2.38503E+05-2.83980E+07-3.56958E+07
 -1       208 1.92469E+05-5.07380E+06-7.90640E+07-8.30274E-07-6.02659E-06-2.57488E+07
 -1       209 2.10038E+05-2.28283E+06-7.64014E+07 2.38503E+05 2.83980E+07-3.56958E+07
 -1       210 6.38261E+06 1.23704E+07 3.33307E+08 2.31201E-07-4.78886E-06-2.09122E+07
 -1       211 8.22581E+05 1.01099E+07 6.85504E+08 1.31005E+06-1.13296E+07-1.54029E+07
 -1       212 7.30841E+05 2.36954E+07 7.00895E+08 1.15437E-06-3.01655E-06-1.11929E+07
 -1       213 8.22581E+05 1.01099E+07 6.85504E+08-1.31005E+06 1.13296E+07-1.54029E+07
 -1       214 1.26517E+07 2.01623E+07 6.44898E+08 1.10827E-06-2.70922E-06 5.20088E+06
 -1       215 3.41362E+06 4.47596E+05 4.99732E+08 3.07974E+05 1.79704E+07 2.54298E+07
 -1       216 2.91043E+06 2.77070E+06 5.03431E+08-5.37839E-07-2.48291E-06 1.91253E+07
 -1       217 3.41362E+06 4.47596E+05 4.99732E+08-3.07974E+05-1.79704E+07 2.54298E+07
 -1       218-9.20251E+06-2.77560E+07 2.00898E+08 6.22706E-07 6.57514E-07 1.07228E+07
 -1       219 9.48086E-07-7.57165E-07-2.64496E-07-5.28991E-07-6.74045E-07-2.16481E+08
 -1       220-8.86619E-07-1.12690E-06-7.45058E-08-1.04989E+06-4.75091E-07-2.57964E+08
 -1       221 1.26190E+07 1.67870E+07 1.62177E+08 3.77651E-07 2.03168E-06-9.94655E+07
 -1       222 1.87382E-06-1.27964E-06-3.07336E-08-7.84639E-08-8.93080E-07-2.13880E+08
 -1       223-1.26190E+07-1.67870E+07-1.62177E+08-3.45055E-07-3.87290E-06-9.94655E+07
 -1       224-2.04891E-07-2.57045E-07-6.70552E-08 1.04989E+06-8.10134E-07-2.57964E+08
 -1       225 2.53133E-06-1.60187E-07 8.58679E-07 1.62283E-07-2.39903E-07-6.01577E+07
 -1       226 1.67545E-06 1.43796E-06 1.33028E-06-5.73563E+06-9.89530E-09 1.05207E+08
 -1       227 1.46574E+07 1.87988E+07 2.77449E+08 3.29223E-07 1.19279E-06 4.63546E+07
 -1       228 2.71806E-06 3.58559E-07 4.89061E-07 2.61702E-07-3.63798E-07 8.27917E+07
 -1       229-1.46574E+07-1.87988E+07-2.77449E+08 5.26663E-07-1.89641E-06 4.63546E+07
 -1       230-1.65403E-06-2.88105E-06-3.28152E-06 5.73563E+06-1.92667E-07 1.05207E+08
 -1       231 3.79048E-07-2.20956E-07 8.50996E-08 9.89530E-08-5.25382E-07 1.41265E+08
 -1       232 1.24640E-06 2.39350E-07 1.21258E-06 1.76796E+06 6.62636E-07 2.20657E+08
 -1       233-1.64706E+06-4.18232E+06-1.11811E+08-4.04601E-07-2.41678E-07 1.00949E+08
 -1       234-8.91720E-07-3.81726E-07 7.78586E-07-1.38090E-07 8.54488E-07 1.75526E+08
 -1       235 1.64706E+06 4.18232E+06 1.11811E+08-5.20668E-07 1.32341E-06 1.00949E+08
 -1       236 8.87958E-08-1.27591E-07 2.16067E-07-1.76796E+06 3.60422E-07 2.20657E+08
 -1       237-2.91271E-07-1.10827E-06 3.19444E-07-4.13274E-07 4.30737E-07 8.31392E+07
 -1       238-4.58211E-07 7.61007E-07-9.54606E-07 6.30780E+06 2.72412E-08-2.53592E+07
 -1       239-8.97493E+06-1.54013E+07-3.44477E+08-1.14413E-06-2.30104E-06-1.12817E+07
 -1       240-2.02563E-07-2.07085E-06-1.21281E-06-5.94184E-07-1.39393E-07-2.01853E+07
 -1       241 8.97493E+06 1.54013E+07 3.44477E+08 1.17137E-06 2.97348E-06-1.12817E+07
 -1       242-1.47801E-06-1.55787E-06 1.08639E-06-6.30780E+06 1.05865E-07-2.53592E+07
 -1       243-2.93227E-06-1.91678E-06-1.47428E-06 1.60304E-07-6.28177E-07-1.12813E+08
 -1       244-1.99629E-06-1.18092E-06-4.05125E-07 1.01597E+06-5.67408E-07-2.45468E+08
 -1       245-1.15524E+06-2.63501E+06-3.87518E+07 3.65544E-07-3.31318E-06-1.10418E+08
 -1       246-4.22518E-06-1.04029E-06-2.72878E-07 5.70668E-07-8.53557E-07-1.95087E+08
 -1       247 1.15524E+06 2.63501E+06 3.87518E+07-1.79512E-07 9.08971E-07-1.10418E+08
 -1       248-1.04075E-06 7.99075E-07 6.43544E-07-1.01597E+06-6.43777E-07-2.45468E+08
 -1       249 1.38092E-06 5.47385E-07 8.51229E-07-4.73694E-07-5.57397E-07-1.43701E+08
 -1       250 2.68687E-06 1.14841E-06 1.99815E-06-5.24975E+06 5.56465E-08-9.88258E+07
 -1       251 8.51965E+06 1.30687E+07 3.46918E+08 5.02914E-08-1.80909E-06-4.47464E+07
 -1       252 5.65732E-06 2.18520E-06 2.67010E-06-1.21433E-06-6.66740E-07-7.82999E+07
 -1       253-8.51965E+06-1.30687E+07-3.46918E+08-7.57165E-07 9.59262E-07-4.47464E+07
 -1       254 3.61167E-06 1.17734E-06 8.35396E-07 5.24975E+06-4.29165E-07-9.88258E+07
 -1       255 3.13972E-06 2.88174E-06 2.02935E-06-5.30155E-07-4.87868E-07 2.39207E+07
 -1       256-1.06636E-06-2.79862E-07 1.02352E-06-2.09219E+06-8.35978E-07 1.52652E+08
 -1       257 4.20701E+06 1.59981E+06 2.50122E+08-1.62050E-07-1.42143E-06 7.12550E+07
 -1       258-2.46894E-06 2.36998E-06 1.55554E-06-1.02911E-07-2.89700E-07 1.23385E+08
 -1       259-4.20701E+06-1.59981E+06-2.50122E+08 6.47269E-08-3.79980E-07 7.12550E+07
 -1       260-3.34345E-07-7.69272E-07 5.04777E-07 2.09219E+06-5.24218E-07 1.52652E+08
 -1       261 1.42539E-06 2.52982E-06 2.52947E-06-8.71718E-07 5.22996E-07 8.32791E+07
 -3
    1PSTEP                        21           1           1          
    1PGM                1.000000E+00                                  
    1PGK                7.368852E+06                                  
    1PHID                         -1                                  
    1PSUBC                         0                                  
    1PMODE                        11                                  
  100CL  111 4.32036E+02         261                     2   11MODAL      1
 -4  DISP        4    1
 -5  D1          1    2    1    0
 -5  D2          1    2    2    0
 -5  D3          1    2    3    0
 -5  ALL         1    2    0    0    1ALL
 -1         1 0.00000E+00 0.00000E+00 0.00000E+00
 -1         2 0.00000E+00 0.00000E+00 0.00000E+00
 -1         3 0.00000E+00 0.00000E+00 0.00000E+00
 -1         4 0.00000E+00 0.00000E+00 0.00000E+00
 -1         5-1.58796E-05 5.05129E-03 4.40046E-03
 -1         6 1.58796E-05 5.05129E-03 4.40046E-03
 -1         7-1.58796E-05 5.05129E-03-4.40046E-03
 -1         8 1.58796E-05 5.05129E-03-4.40046E-03
 -1         9 0.00000E+00 0.00000E+00 0.00000E+00
 -1        10 0.00000E+00 0.00000E+00 0.00000E+00
 -1        11 0.00000E+00 0.00000E+00 0.00000E+00
 -1        12 0.00000E+00 0.00000E+00 0.00000E+00
 -1        13 0.00000E+00 0.00000E+00 0.00000E+00
 -1        14 0.00000E+00 0.00000E+00 0.00000E+00
 -1        15 0.00000E+00 0.00000E+00 0.00000E+00
 -1        16 0.00000E+00 0.00000E+00 0.00000E+00
 -1        17 0.00000E+00 0.00000E+00 0.00000E+00
 -1        18 0.00000E+00 0.00000E+00 0.00000E+00
 -1        19 0.00000E+00 0.00000E+00 0.00000E+00
 -1        20 0.00000E+00 0.00000E+00 0.00000E+00
 -1        21-6.72276E-06 5.06324E-03 4.45899E-03
 -1        22-2.43729E-16 5.07481E-03 4.47262E-03
 -1        23 6.72276E-06 5.06324E-03 4.45899E-03
 -1        24 2.04630E-05 4.98972E-03 2.10337E-03
 -1        25 9.21572E-18 4.90711E-03 3.40168E-18
 -1        26-2.04630E-05 4.98972E-03-2.10337E-03
 -1        27-6.72276E-06 5.06324E-03-4.45899E-03
 -1        28 2.00361E-16 5.07481E-03-4.47262E-03
 -1        29 6.72276E-06 5.06324E-03-4.45899E-03
 -1        30 2.04630E-05 4.98972E-03-2.10337E-03
 -1        31-9.97466E-18 4.90711E-03-5.20417E-18
 -1        32-2.04630E-05 4.98972E-03 2.10337E-03
 -1        33 1.77936E-04-2.05265E-03-8.87036E-04
 -1        34-3.30056E-04-3.97046E-03-7.37081E-04
 -1        35-4.41151E-04-4.80162E-03 5.55568E-04
 -1        36-3.69885E-04-3.68744E-03 1.99026E-03
 -1        37-9.43480E-05-1.27433E-03 2.71643E-03
 -1        38 2.18805E-04 1.58190E-03 2.57396E-03
 -1        39 4.56954E-04 3.70105E-03 1.36615E-03
 -1        40 4.97363E-04 4.19958E-03-2.59985E-04
 -1        41 3.34212E-04 2.94572E-03-1.65993E-03
 -1        42 1.55271E-05 4.62414E-04-2.32222E-03
 -1        43-3.22334E-04-2.13267E-03-1.74255E-03
 -1        44-5.40788E-04-3.65064E-03-3.07599E-04
 -1        45-5.69828E-04-3.42528E-03 1.56966E-03
 -1        46-4.05930E-04-1.36143E-03 3.26618E-03
 -1        47-1.77793E-04 1.77727E-03 4.15040E-03
 -1        48 1.77793E-04 1.77727E-03 4.15040E-03
 -1        49 4.05930E-04-1.36143E-03 3.26618E-03
 -1        50 5.69828E-04-3.42528E-03 1.56966E-03
 -1        51 5.40788E-04-3.65064E-03-3.07599E-04
 -1        52 3.22334E-04-2.13267E-03-1.74255E-03
 -1        53-1.55271E-05 4.62414E-04-2.32222E-03
 -1        54-3.34212E-04 2.94572E-03-1.65993E-03
 -1        55-4.97363E-04 4.19958E-03-2.59985E-04
 -1        56-4.56954E-04 3.70105E-03 1.36615E-03
 -1        57-2.18805E-04 1.58190E-03 2.57396E-03
 -1        58 9.43480E-05-1.27433E-03 2.71643E-03
 -1        59 3.69885E-04-3.68744E-03 1.99026E-03
 -1        60 4.41151E-04-4.80162E-03 5.55568E-04
 -1        61 3.30056E-04-3.97046E-03-7.37081E-04
 -1        62-1.77936E-04-2.05265E-03-8.87036E-04
 -1        63-1.77936E-04-2.05265E-03 8.87036E-04
 -1        64 3.30056E-04-3.97046E-03 7.37081E-04
 -1        65 4.41151E-04-4.80162E-03-5.55568E-04
 -1        66 3.69885E-04-3.68744E-03-1.99026E-03
 -1        67 9.43480E-05-1.27433E-03-2.71643E-03
 -1        68-2.18805E-04 1.58190E-03-2.57396E-03
 -1        69-4.56954E-04 3.70105E-03-1.36615E-03
 -1        70-4.97363E-04 4.19958E-03 2.59985E-04
 -1        71-3.34212E-04 2.94572E-03 1.65993E-03
 -1        72-1.55271E-05 4.62414E-04 2.32222E-03
 -1        73 3.22334E-04-2.13267E-03 1.74255E-03
 -1        74 5.40788E-04-3.65064E-03 3.07599E-04
 -1        75 5.69828E-04-3.42528E-03-1.56966E-03
 -1        76 4.05930E-04-1.36143E-03-3.26618E-03
 -1        77 1.77793E-04 1.77727E-03-4.15040E-03
 -1        78 1.77936E-04-2.05265E-03 8.87036E-04
 -1        79-3.30056E-04-3.97046E-03 7.37081E-04
 -1        80-4.41151E-04-4.80162E-03-5.55568E-04
 -1        81-3.69885E-04-3.68744E-03-1.99026E-03
 -1        82-9.43480E-05-1.27433E-03-2.71643E-03
 -1        83 2.18805E-04 1.58190E-03-2.57396E-03
 -1        84 4.56954E-04 3.70105E-03-1.36615E-03
 -1        85 4.97363E-04 4.19958E-03 2.59985E-04
 -1        86 3.34212E-04 2.94572E-03 1.65993E-03
 -1        87 1.55271E-05 4.62414E-04 2.32222E-03
 -1        88-3.22334E-04-2.13267E-03 1.74255E-03
 -1        89-5.40788E-04-3.65064E-03 3.07599E-04
 -1        90-5.69828E-04-3.42528E-03-1.56966E-03
 -1        91-4.05930E-04-1.36143E-03-3.26618E-03
 -1        92-1.77793E-04 1.77727E-03-4.15040E-03
 -1        93 0.00000E+00 0.00000E+00 0.00000E+00
 -1        94 0.00000E+00 0.00000E+00 0.00000E+00
 -1        95 0.00000E+00 0.00000E+00 0.00000E+00
 -1        96 0.00000E+00 0.00000E+00 0.00000E+00
 -1        97 0.00000E+00 0.00000E+00 0.00000E+00
 -1        98-1.24141E-16 5.01693E-03 2.15566E-03
 -1        99-1.62630E-17 4.91290E-03-0.00000E+00
 -1       100-1.02457E-17 4.93501E-03 5.20417E-18
 -1       101 3.45420E-18 4.91290E-03 4.77049E-18
 -1       102 1.23816E-16 5.01693E-03-2.15566E-03
 -1       103-8.84167E-17-2.09641E-03-9.41545E-04
 -1       104 1.65545E-04-3.91115E-03-8.46003E-04
 -1       105-1.71304E-16-3.88193E-03-8.51198E-04
 -1       106-1.65545E-04-3.91115E-03-8.46003E-04
 -1       107-2.19443E-16-4.63660E-03 5.49465E-04
 -1       108 1.88577E-04-3.57962E-03 2.04499E-03
 -1       109-2.15973E-16-3.56223E-03 2.03423E-03
 -1       110-1.88577E-04-3.57962E-03 2.04499E-03
 -1       111-1.72063E-16-1.23653E-03 2.80762E-03
 -1       112-1.11100E-04 1.51687E-03 2.65544E-03
 -1       113-7.73206E-17 1.50077E-03 2.65591E-03
 -1       114 1.11100E-04 1.51687E-03 2.65544E-03
 -1       115 1.69136E-17 3.53976E-03 1.41015E-03
 -1       116-2.51942E-04 4.05923E-03-2.77822E-04
 -1       117 1.25334E-16 4.02264E-03-2.79021E-04
 -1       118 2.51942E-04 4.05923E-03-2.77822E-04
 -1       119 1.88109E-16 2.82717E-03-1.73603E-03
 -1       120-8.02841E-06 4.56605E-04-2.42149E-03
 -1       121 2.09251E-16 4.55780E-04-2.42150E-03
 -1       122 8.02841E-06 4.56605E-04-2.42149E-03
 -1       123 1.72605E-16-2.01920E-03-1.83053E-03
 -1       124 2.73980E-04-3.50045E-03-3.44535E-04
 -1       125 1.02349E-16-3.46072E-03-3.46449E-04
 -1       126-2.73980E-04-3.50045E-03-3.44535E-04
 -1       127-6.93889E-18-3.22730E-03 1.59113E-03
 -1       128 2.04974E-04-1.25390E-03 3.32835E-03
 -1       129-1.09288E-16-1.21982E-03 3.32656E-03
 -1       130-2.04974E-04-1.25390E-03 3.32835E-03
 -1       131-1.68268E-16 1.83861E-03 4.22255E-03
 -1       132 6.23416E-18-2.05979E-03-5.20417E-18
 -1       133-1.64371E-04-4.12539E-03 2.83015E-05
 -1       134 1.59378E-17-4.21543E-03-4.66207E-18
 -1       135 1.64371E-04-4.12539E-03-2.83015E-05
 -1       136 6.93889E-18-4.88129E-03-1.73472E-18
 -1       137-1.67996E-04-3.88142E-03 8.05508E-04
 -1       138 9.86624E-18-3.89306E-03 2.35136E-18
 -1       139 1.67996E-04-3.88142E-03-8.05508E-04
 -1       140-1.14925E-17-1.30207E-03 6.39679E-18
 -1       141 1.02649E-04 1.69288E-03 9.98875E-04
 -1       142-8.99888E-18 1.70268E-03 8.67362E-19
 -1       143-1.02649E-04 1.69288E-03-9.98875E-04
 -1       144-1.56125E-17 3.90274E-03-8.67362E-19
 -1       145 2.35952E-04 4.44624E-03-6.04094E-05
 -1       146-2.60209E-18 4.47660E-03-2.60209E-18
 -1       147-2.35952E-04 4.44624E-03 6.04094E-05
 -1       148-3.52366E-18 3.08264E-03-1.62630E-18
 -1       149 6.34580E-06 4.66323E-04-8.02549E-04
 -1       150 1.16281E-17 4.60557E-04 1.51788E-18
 -1       151-6.34580E-06 4.66323E-04 8.02549E-04
 -1       152 1.12757E-17-2.28578E-03 2.05998E-18
 -1       153-2.58139E-04-3.93268E-03-1.10009E-05
 -1       154 1.19262E-17-3.98323E-03 8.89046E-18
 -1       155 2.58139E-04-3.93268E-03 1.10009E-05
 -1       156 9.32414E-18-3.71939E-03 8.13152E-18
 -1       157-2.01595E-04-1.59128E-03 1.45489E-03
 -1       158 5.63785E-18-1.66081E-03 3.79471E-18
 -1       159 2.01595E-04-1.59128E-03-1.45489E-03
 -1       160-3.90313E-18 1.64811E-03-2.68340E-18
 -1       161 9.86624E-17-2.09641E-03 9.41545E-04
 -1       162 1.65545E-04-3.91115E-03 8.46003E-04
 -1       163 1.96457E-16-3.88193E-03 8.51198E-04
 -1       164-1.65545E-04-3.91115E-03 8.46003E-04
 -1       165 2.45897E-16-4.63660E-03-5.49465E-04
 -1       166 1.88577E-04-3.57962E-03-2.04499E-03
 -1       167 2.32887E-16-3.56223E-03-2.03423E-03
 -1       168-1.88577E-04-3.57962E-03-2.04499E-03
 -1       169 1.52005E-16-1.23653E-03-2.80762E-03
 -1       170-1.11100E-04 1.51687E-03-2.65544E-03
 -1       171 4.77049E-17 1.50077E-03-2.65591E-03
 -1       172 1.11100E-04 1.51687E-03-2.65544E-03
 -1       173-6.74374E-17 3.53976E-03-1.41015E-03
 -1       174-2.51942E-04 4.05923E-03 2.77822E-04
 -1       175-1.45283E-16 4.02264E-03 2.79021E-04
 -1       176 2.51942E-04 4.05923E-03 2.77822E-04
 -1       177-1.78243E-16 2.82717E-03 1.73603E-03
 -1       178-8.02841E-06 4.56605E-04 2.42149E-03
 -1       179-1.92121E-16 4.55780E-04 2.42150E-03
 -1       180 8.02841E-06 4.56605E-04 2.42149E-03
 -1       181-1.46584E-16-2.01920E-03 1.83053E-03
 -1       182 2.73980E-04-3.50045E-03 3.44535E-04
 -1       183-6.89553E-17-3.46072E-03 3.46449E-04
 -1       184-2.73980E-04-3.50045E-03 3.44535E-04
 -1       185 1.90820E-17-3.22730E-03-1.59113E-03
 -1       186 2.04974E-04-1.25390E-03-3.32835E-03
 -1       187 1.14275E-16-1.21982E-03-3.32656E-03
 -1       188-2.04974E-04-1.25390E-03-3.32835E-03
 -1       189 1.65666E-16 1.83861E-03-4.22255E-03
 -1       190 3.68629E-18-2.05979E-03 4.33681E-19
 -1       191-1.64371E-04-4.12539E-03-2.83015E-05
 -1       192 5.42101E-18-4.21543E-03-1.73472E-18
 -1       193 1.64371E-04-4.12539E-03 2.83015E-05
 -1       194 6.07153E-18-4.88129E-03-5.42101E-18
 -1       195-1.67996E-04-3.88142E-03-8.05508E-04
 -1       196 2.38524E-18-3.89306E-03-9.97466E-18
 -1       197 1.67996E-04-3.88142E-03 8.05508E-04
 -1       198-4.22839E-18-1.30207E-03-6.93889E-18
 -1       199 1.02649E-04 1.69288E-03-9.98875E-04
 -1       200-7.42678E-18 1.70268E-03-4.77049E-18
 -1       201-1.02649E-04 1.69288E-03 9.98875E-04
 -1       202-3.87602E-18 3.90274E-03-8.67362E-19
 -1       203 2.35952E-04 4.44624E-03 6.04094E-05
 -1       204-3.68629E-18 4.47660E-03 3.03577E-18
 -1       205-2.35952E-04 4.44624E-03-6.04094E-05
 -1       206 4.71628E-18 3.08264E-03 9.54098E-18
 -1       207 6.34580E-06 4.66323E-04 8.02549E-04
 -1       208 5.52943E-18 4.60557E-04 1.11673E-17
 -1       209-6.34580E-06 4.66323E-04-8.02549E-04
 -1       210 1.36609E-17-2.28578E-03 4.11997E-18
 -1       211-2.58139E-04-3.93268E-03 1.10009E-05
 -1       212 2.60209E-18-3.98323E-03 2.81893E-18
 -1       213 2.58139E-04-3.93268E-03-1.10009E-05
 -1       214-4.55365E-18-3.71939E-03-5.42101E-20
 -1       215-2.01595E-04-1.59128E-03-1.45489E-03
 -1       216-4.01155E-18-1.66081E-03-5.63785E-18
 -1       217 2.01595E-04-1.59128E-03 1.45489E-03
 -1       218-1.44741E-17 1.64811E-03-6.07153E-18
 -1       219 3.84892E-18-2.07544E-03-1.51788E-18
 -1       220-8.32667E-17-4.04307E-03-6.42138E-05
 -1       221 5.96311E-18-4.16231E-03-1.30104E-18
 -1       222 3.95734E-18-4.13840E-03-2.38524E-18
 -1       223 7.48099E-18-4.16231E-03-4.55365E-18
 -1       224 1.00993E-16-4.04307E-03 6.42138E-05
 -1       225 9.75782E-18-4.75771E-03-3.68629E-18
 -1       226-1.06957E-16-3.76913E-03 8.50363E-04
 -1       227-6.50521E-19-3.80545E-03-3.90313E-18
 -1       228 2.81893E-18-3.78569E-03-3.25261E-19
 -1       229 5.93601E-18-3.80545E-03-5.96311E-19
 -1       230 1.13082E-16-3.76913E-03-8.50363E-04
 -1       231-6.12574E-18-1.27649E-03-2.16840E-18
 -1       232-4.77049E-17 1.62073E-03 1.07089E-03
 -1       233-7.80626E-18 1.64957E-03-4.77049E-18
 -1       234-1.47451E-17 1.63638E-03-2.16840E-18
 -1       235-1.47451E-17 1.64957E-03 4.33681E-19
 -1       236 2.54110E-17 1.62073E-03-1.07089E-03
 -1       237-9.97466E-18 3.76729E-03-4.33681E-19
 -1       238 6.57027E-17 4.28640E-03-7.65189E-05
 -1       239-1.30104E-17 4.35812E-03 3.03577E-18
 -1       240-1.15196E-17 4.32642E-03 1.30104E-18
 -1       241 9.54098E-18 4.35812E-03 9.21572E-19
 -1       242-7.95804E-17 4.28640E-03 7.65189E-05
 -1       243-7.58942E-19 2.98482E-03 3.94040E-18
 -1       244 1.07770E-16 4.62073E-04-8.89564E-04
 -1       245 2.43945E-18 4.57605E-04 4.60786E-18
 -1       246 5.85469E-18 4.57748E-04 5.20417E-18
 -1       247 3.12386E-18 4.57605E-04 2.71051E-18
 -1       248-9.58435E-17 4.62073E-04 8.89564E-04
 -1       249 4.55365E-18-2.18872E-03 7.72536E-18
 -1       250 4.77049E-17-3.75645E-03-4.37916E-05
 -1       251 1.30104E-18-3.85153E-03 4.10642E-18
 -1       252 5.85469E-18-3.81394E-03 2.38524E-18
 -1       253 7.48099E-18-3.85153E-03 6.93889E-18
 -1       254-2.81893E-17-3.75645E-03 4.37916E-05
 -1       255 2.16840E-18-3.54561E-03 7.58942E-19
 -1       256-5.13912E-17-1.45051E-03 1.50842E-03
 -1       257-8.13152E-18-1.55440E-03 6.50521E-19
 -1       258-3.88280E-18-1.51963E-03 4.77049E-18
 -1       259-4.33681E-18-1.55440E-03 4.77049E-18
 -1       260 4.53197E-17-1.45051E-03-1.50842E-03
 -1       261-1.19262E-17 1.70278E-03 4.77049E-18
 -3
    1PSTEP                        22           1           1          
    1PGM                1.000000E+00                                  
    1PGK                7.368852E+06                                  
    1PHID                         -1                                  
    1PSUBC                         0                                  
    1PMODE                        11                                  
  100CL  111 4.32036E+02         261                     2   11MODAL      1
 -4  STRESS      6    1
 -5  SXX         1    4    1    1
 -5  SYY         1    4    2    2
 -5  SZZ         1    4    3    3
 -5  SXY         1    4    1    2
 -5  SYZ         1    4    2    3
 -5  SZX         1    4    3    1
 -1         1-1.71014E+08-2.28321E+08-6.61821E+08 1.51429E+07-3.06172E+08-8.38772E+07
 -1         2-1.71014E+08-2.28321E+08-6.61821E+08-1.51429E+07-3.06172E+08 8.38772E+07
 -1         3 1.71014E+08 2.28321E+08 6.61821E+08-1.51429E+07-3.06172E+08-8.38772E+07
 -1         4 1.71014E+08 2.28321E+08 6.61821E+08 1.51429E+07-3.06172E+08 8.38772E+07
 -1         5 5.08407E+06-1.79208E+07-2.19536E+07-7.35197E+05 2.72802E+06-6.05419E+05
 -1         6 5.08407E+06-1.79208E+07-2.19536E+07 7.35197E+05 2.72802E+06 6.05419E+05
 -1         7-5.08407E+06 1.79208E+07 2.19536E+07 7.35197E+05 2.72802E+06-6.05419E+05
 -1         8-5.08407E+06 1.79208E+07 2.19536E+07-7.35197E+05 2.72802E+06 6.05419E+05
 -1         9-1.76917E+08-2.31793E+08-6.78027E+08 2.83150E+06-3.16920E+08-4.17875E+07
 -1        10-1.82821E+08-2.35265E+08-6.94233E+08 2.81259E-07-3.27669E+08-1.35638E-05
 -1        11-1.76917E+08-2.31793E+08-6.78027E+08-2.83150E+06-3.16920E+08 4.17875E+07
 -1        12-6.32706E+07-8.36434E+07-2.87306E+08-1.69665E+07-2.97446E+08 4.19565E+07
 -1        13-2.52575E-06-4.73112E-07-4.65661E-06-1.87901E+07-2.88720E+08-1.30851E-07
 -1        14 6.32706E+07 8.36434E+07 2.87306E+08-1.69665E+07-2.97446E+08-4.19565E+07
 -1        15 1.76917E+08 2.31793E+08 6.78027E+08-2.83150E+06-3.16920E+08-4.17875E+07
 -1        16 1.82821E+08 2.35265E+08 6.94233E+08 3.22238E-07-3.27669E+08 1.48639E-05
 -1        17 1.76917E+08 2.31793E+08 6.78027E+08 2.83150E+06-3.16920E+08 4.17875E+07
 -1        18 6.32706E+07 8.36434E+07 2.87306E+08 1.69665E+07-2.97446E+08 4.19565E+07
 -1        19 8.56817E-07 5.69969E-07 1.46776E-06 1.87901E+07-2.88720E+08 7.16522E-07
 -1        20-6.32706E+07-8.36434E+07-2.87306E+08 1.69665E+07-2.97446E+08-4.19565E+07
 -1        21 1.70719E+06-1.92277E+07-2.50875E+07 3.64727E+05 8.39362E+05-5.58312E+05
 -1        22-1.66970E+06-2.05346E+07-2.82215E+07 9.41101E-06-1.04929E+06-5.76171E-06
 -1        23 1.70719E+06-1.92277E+07-2.50875E+07-3.64727E+05 8.39362E+05 5.58312E+05
 -1        24-2.31914E+06-2.91784E+07-1.28094E+07-1.85053E+06 3.55562E+07-2.69784E+05
 -1        25-1.49012E-06 1.02855E-05 7.94977E-06-4.43626E+06 6.83845E+07 3.54368E-06
 -1        26 2.31914E+06 2.91784E+07 1.28094E+07-1.85053E+06 3.55562E+07 2.69784E+05
 -1        27-1.70719E+06 1.92277E+07 2.50875E+07-3.64727E+05 8.39362E+05-5.58312E+05
 -1        28 1.66970E+06 2.05346E+07 2.82215E+07-1.18504E-05-1.04929E+06 3.01003E-06
 -1        29-1.70719E+06 1.92277E+07 2.50875E+07 3.64727E+05 8.39362E+05 5.58312E+05
 -1        30 2.31914E+06 2.91784E+07 1.28094E+07 1.85053E+06 3.55562E+07-2.69784E+05
 -1        31 1.71643E-06 2.25939E-05 8.17887E-06 4.43626E+06 6.83845E+07 2.54705E-06
 -1        32-2.31914E+06-2.91784E+07-1.28094E+07 1.85053E+06 3.55562E+07 2.69784E+05
 -1        33-4.26298E+07-8.74122E+07-1.45501E+08-9.19748E+06-1.57369E+08 9.56843E+05
 -1        34 3.83864E+07 5.50565E+07 4.13961E+08 4.46155E+06-2.11712E+07-3.06427E+07
 -1        35 4.39244E+06 5.08158E+07 5.19034E+08 5.42025E+06 4.26120E+06 6.89345E+06
 -1        36-8.67379E+05 9.18637E+06 5.20910E+08-1.64992E+06 3.53214E+07-8.52978E+04
 -1        37-1.04540E+06 6.39548E+04 1.09579E+08-8.15880E+04 4.70043E+07 6.77949E+06
 -1        38 3.97724E+06-1.88562E+05-3.14426E+08 1.62806E+05 6.06401E+07 8.46740E+06
 -1        39-3.53805E+06-2.26651E+07-5.59736E+08-1.33995E+06 2.52116E+07 4.11244E+06
 -1        40 3.80693E+06-1.47313E+07-7.21164E+08-7.41519E+05-1.31431E+07-2.11623E+06
 -1        41-3.02844E+06-1.99407E+07-4.05277E+08-1.32552E+06-4.49302E+07-6.00049E+06
 -1        42 1.51968E+05-1.29329E+06-2.55608E+07-5.32694E+04-6.97720E+07-9.58299E+06
 -1        43 2.34049E+06 1.44536E+07 4.02389E+08 9.86938E+05-5.28847E+07-6.78695E+06
 -1        44-4.24605E+06 1.00760E+07 7.74221E+08 4.69528E+05-2.83775E+07-3.47271E+06
 -1        45 3.48171E+06 2.21499E+07 7.20155E+08 1.29707E+06 1.18767E+07 2.28894E+06
 -1        46-1.40218E+06 9.93142E+06 5.78132E+08 1.60025E+05 4.54778E+07 7.09558E+06
 -1        47-3.13096E+06-1.25490E+07 2.43542E+08-1.54390E+05 2.40837E+07 3.66067E+06
 -1        48-3.13096E+06-1.25490E+07 2.43542E+08 1.54390E+05 2.40837E+07-3.66067E+06
 -1        49-1.40218E+06 9.93142E+06 5.78132E+08-1.60025E+05 4.54778E+07-7.09558E+06
 -1        50 3.48171E+06 2.21499E+07 7.20155E+08-1.29707E+06 1.18767E+07-2.28894E+06
 -1        51-4.24605E+06 1.00760E+07 7.74221E+08-4.69528E+05-2.83775E+07 3.47271E+06
 -1        52 2.34049E+06 1.44536E+07 4.02389E+08-9.86938E+05-5.28847E+07 6.78695E+06
 -1        53 1.51968E+05-1.29329E+06-2.55608E+07 5.32694E+04-6.97720E+07 9.58299E+06
 -1        54-3.02844E+06-1.99407E+07-4.05277E+08 1.32552E+06-4.49302E+07 6.00049E+06
 -1        55 3.80693E+06-1.47313E+07-7.21164E+08 7.41519E+05-1.31431E+07 2.11623E+06
 -1        56-3.53805E+06-2.26651E+07-5.59736E+08 1.33995E+06 2.52116E+07-4.11244E+06
 -1        57 3.97724E+06-1.88562E+05-3.14426E+08-1.62806E+05 6.06401E+07-8.46740E+06
 -1        58-1.04540E+06 6.39548E+04 1.09579E+08 8.15880E+04 4.70043E+07-6.77949E+06
 -1        59-8.67379E+05 9.18637E+06 5.20910E+08 1.64992E+06 3.53214E+07 8.52978E+04
 -1        60 4.39244E+06 5.08158E+07 5.19034E+08-5.42025E+06 4.26120E+06-6.89345E+06
 -1        61 3.83864E+07 5.50565E+07 4.13961E+08-4.46155E+06-2.11712E+07 3.06427E+07
 -1        62-4.26298E+07-8.74122E+07-1.45501E+08 9.19748E+06-1.57369E+08-9.56843E+05
 -1        63 4.26298E+07 8.74122E+07 1.45501E+08-9.19748E+06-1.57369E+08-9.56843E+05
 -1        64-3.83864E+07-5.50565E+07-4.13961E+08 4.46155E+06-2.11712E+07 3.06427E+07
 -1        65-4.39244E+06-5.08158E+07-5.19034E+08 5.42025E+06 4.26120E+06-6.89345E+06
 -1        66 8.67379E+05-9.18637E+06-5.20910E+08-1.64992E+06 3.53214E+07 8.52978E+04
 -1        67 1.04540E+06-6.39548E+04-1.09579E+08-8.15880E+04 4.70043E+07-6.77949E+06
 -1        68-3.97724E+06 1.88562E+05 3.14426E+08 1.62806E+05 6.06401E+07-8.46740E+06
 -1        69 3.53805E+06 2.26651E+07 5.59736E+08-1.33995E+06 2.52116E+07-4.11244E+06
 -1        70-3.80693E+06 1.47313E+07 7.21164E+08-7.41519E+05-1.31431E+07 2.11623E+06
 -1        71 3.02844E+06 1.99407E+07 4.05277E+08-1.32552E+06-4.49302E+07 6.00049E+06
 -1        72-1.51968E+05 1.29329E+06 2.55608E+07-5.32694E+04-6.97720E+07 9.58299E+06
 -1        73-2.34049E+06-1.44536E+07-4.02389E+08 9.86938E+05-5.28847E+07 6.78695E+06
 -1        74 4.24605E+06-1.00760E+07-7.74221E+08 4.69528E+05-2.83775E+07 3.47271E+06
 -1        75-3.48171E+06-2.21499E+07-7.20155E+08 1.29707E+06 1.18767E+07-2.28894E+06
 -1        76 1.40218E+06-9.93142E+06-5.78132E+08 1.60025E+05 4.54778E+07-7.09558E+06
 -1        77 3.13096E+06 1.25490E+07-2.43542E+08-1.54390E+05 2.40837E+07-3.66067E+06
 -1        78 4.26298E+07 8.74122E+07 1.45501E+08 9.19748E+06-1.57369E+08 9.56843E+05
 -1        79-3.83864E+07-5.50565E+07-4.13961E+08-4.46155E+06-2.11712E+07-3.06427E+07
 -1        80-4.39244E+06-5.08158E+07-5.19034E+08-5.42025E+06 4.26120E+06 6.89345E+06
 -1        81 8.67379E+05-9.18637E+06-5.20910E+08 1.64992E+06 3.53214E+07-8.52978E+04
 -1        82 1.04540E+06-6.39548E+04-1.09579E+08 8.15880E+04 4.70043E+07 6.77949E+06
 -1        83-3.97724E+06 1.88562E+05 3.14426E+08-1.62806E+05 6.06401E+07 8.46740E+06
 -1        84 3.53805E+06 2.26651E+07 5.59736E+08 1.33995E+06 2.52116E+07 4.11244E+06
 -1        85-3.80693E+06 1.47313E+07 7.21164E+08 7.41519E+05-1.31431E+07-2.11623E+06
 -1        86 3.02844E+06 1.99407E+07 4.05277E+08 1.32552E+06-4.49302E+07-6.00049E+06
 -1        87-1.51968E+05 1.29329E+06 2.55608E+07 5.32694E+04-6.97720E+07-9.58299E+06
 -1        88-2.34049E+06-1.44536E+07-4.02389E+08-9.86938E+05-5.28847E+07-6.78695E+06
 -1        89 4.24605E+06-1.00760E+07-7.74221E+08-4.69528E+05-2.83775E+07-3.47271E+06
 -1        90-3.48171E+06-2.21499E+07-7.20155E+08-1.29707E+06 1.18767E+07 2.28894E+06
 -1        91 1.40218E+06-9.93142E+06-5.78132E+08-1.60025E+05 4.54778E+07 7.09558E+06
 -1        92 3.13096E+06 1.25490E+07-2.43542E+08 1.54390E+05 2.40837E+07 3.66067E+06
 -1        93-6.87822E+07-8.42922E+07-3.05029E+08-3.22238E-07-3.13937E+08-6.44859E-06
 -1        94 6.14673E-07 6.85453E-07 5.21541E-07 6.47864E+06-2.94463E+08 7.42111E-07
 -1        95-5.99772E-07 2.64496E-07-9.87202E-07-9.95584E-07-3.00205E+08 6.64411E-07
 -1        96-2.04518E-06-3.68804E-07-3.10689E-06-6.47864E+06-2.94463E+08 2.15136E-07
 -1        97 6.87822E+07 8.42922E+07 3.05029E+08-3.72063E-07-3.13937E+08 7.76304E-06
 -1        98-6.57982E+06-3.21638E+07-1.72109E+07 7.26595E-06 2.63866E+07-1.74314E-06
 -1        99 1.22283E-06-4.85405E-06-7.32951E-07 5.53618E+06 6.11035E+07 2.42912E-06
 -1       100 2.37580E-06-1.97254E-05-5.25871E-06 1.17286E-05 5.38226E+07 2.29641E-06
 -1       101 1.26660E-06 1.57207E-06 3.53856E-06-5.53618E+06 6.11035E+07 2.91248E-06
 -1       102 6.57982E+06 3.21638E+07 1.72109E+07 3.24310E-06 2.63866E+07 2.66370E-06
 -1       103-5.79229E+07-9.86151E+07-1.82378E+08 3.00817E-07-1.51918E+08-1.38036E-05
 -1       104 4.13211E+07 5.74733E+07 4.24224E+08-7.89142E+05-8.94817E+06 2.18485E+07
 -1       105 4.42558E+07 5.98900E+07 4.34487E+08 6.88247E-07 3.27486E+06-1.39088E-05
 -1       106 4.13211E+07 5.74733E+07 4.24224E+08 7.89142E+05-8.94817E+06-2.18485E+07
 -1       107 1.21670E+07 5.50234E+07 5.63992E+08-3.68105E-07 6.01988E+06-3.96511E-06
 -1       108-5.64042E+06 4.11768E+06 5.30422E+08-2.02736E+06 3.00310E+07-4.24258E+06
 -1       109-1.04135E+07-9.51012E+05 5.39934E+08-1.59233E-06 2.47405E+07 4.49782E-06
 -1       110-5.64042E+06 4.11768E+06 5.30422E+08 2.02736E+06 3.00310E+07 4.24258E+06
 -1       111-2.34802E+06-1.64799E+06 1.17795E+08 3.21306E-07 3.34410E+07 1.18371E-05
 -1       112 4.96453E+06 6.73916E+05-3.21505E+08 9.69549E+05 5.23043E+07-8.02615E+06
 -1       113 5.95182E+06 1.53639E+06-3.28584E+08 2.04667E-06 4.39685E+07 1.78160E-05
 -1       114 4.96453E+06 6.73916E+05-3.21505E+08-9.69549E+05 5.23043E+07 8.02615E+06
 -1       115-1.98760E+06-2.00397E+07-5.84959E+08 2.65328E-06 1.85649E+07 1.77207E-05
 -1       116 4.38544E+06-1.35040E+07-7.38722E+08 1.56712E+06-1.15258E+07 1.75385E+06
 -1       117 4.96395E+06-1.22767E+07-7.56279E+08 2.89339E-06-9.90861E+06 1.73475E-05
 -1       118 4.38544E+06-1.35040E+07-7.38722E+08-1.56712E+06-1.15258E+07-1.75385E+06
 -1       119-2.85246E+06-1.84378E+07-4.25935E+08 2.27417E-06-3.32309E+07 7.76723E-06
 -1       120 1.66872E+05-1.09740E+06-2.71902E+07 1.98009E+05-6.05941E+07 9.91978E+06
 -1       121 1.81776E+05-9.01518E+05-2.88196E+07 2.50863E-06-5.14162E+07-4.99655E-07
 -1       122 1.66872E+05-1.09740E+06-2.71902E+07-1.98009E+05-6.05941E+07-9.91978E+06
 -1       123 9.31988E+05 1.31242E+07 4.17620E+08-1.49128E-06-3.93476E+07-7.04220E-06
 -1       124-6.04780E+06 8.45218E+06 7.89919E+08-1.59298E+06-2.51991E+07 3.34529E+06
 -1       125-7.84955E+06 6.82835E+06 8.05617E+08-5.85464E-06-2.20208E+07-1.41752E-05
 -1       126-6.04780E+06 8.45218E+06 7.89919E+08 1.59298E+06-2.51991E+07-3.34529E+06
 -1       127 1.35213E+06 2.12983E+07 7.45239E+08-3.19781E-06 8.34270E+06-1.53084E-05
 -1       128-3.40489E+06 9.41189E+06 5.83227E+08-3.19114E+05 3.93441E+07-7.33116E+06
 -1       129-5.40761E+06 8.89236E+06 5.88321E+08-1.07021E-06 3.32104E+07-1.12895E-05
 -1       130-3.40489E+06 9.41189E+06 5.83227E+08 3.19114E+05 3.93441E+07 7.33116E+06
 -1       131-9.90248E+06-1.55872E+07 2.42075E+08 3.97302E-06 1.56180E+07-7.08061E-06
 -1       132 1.63913E-06-1.80677E-06-1.41561E-06-1.20564E+07-3.48124E+08 5.52973E-07
 -1       133 1.31859E+07 1.83802E+07 1.95796E+08 5.05875E+06-1.93974E+08-1.31841E+07
 -1       134 4.31016E-06-3.52226E-06 1.67638E-06 5.65595E+06-3.66777E+08-2.40747E-07
 -1       135-1.31859E+07-1.83802E+07-1.95796E+08 5.05875E+06-1.93974E+08 1.31841E+07
 -1       136 1.14366E-06-4.39771E-06 1.42306E-06 6.88244E+06-8.24082E+07 1.18243E-06
 -1       137 5.48333E+06 3.07566E+07 2.46104E+08-2.84990E+06 1.13880E+08-1.37400E+06
 -1       138-2.83122E-07-4.20585E-06 1.55903E-06-4.04988E+06 1.92438E+08 1.04413E-06
 -1       139-5.48333E+06-3.07566E+07-2.46104E+08-2.84990E+06 1.13880E+08 1.37400E+06
 -1       140 2.41585E-06-8.67993E-07-5.58794E-07-8.80674E+05 2.80006E+08 9.61591E-08
 -1       141 7.35033E+04-9.11723E+06-1.51421E+08 5.72061E+05 1.93797E+08 2.16327E+06
 -1       142 6.53788E-06 4.61470E-06 3.63216E-07 9.81316E+05 3.26954E+08-3.16533E-07
 -1       143-7.35033E+04 9.11723E+06 1.51421E+08 5.72061E+05 1.93797E+08-2.16327E+06
 -1       144-1.42413E-05-4.09782E-07-4.76092E-06-1.04567E+06 1.32177E+08-2.85450E-07
 -1       145 5.09305E+05-2.34588E+07-3.43192E+08-4.43287E+05-4.59206E+07-6.31375E+05
 -1       146-3.63155E-05-9.16421E-06-1.32304E-05-1.45055E+05-7.86980E+07-9.22941E-07
 -1       147-5.09305E+05 2.34588E+07 3.43192E+08-4.43287E+05-4.59206E+07 6.31375E+05
 -1       148-1.43573E-05-9.64291E-06-5.98282E-06-1.33458E+06-2.52290E+08-5.94184E-07
 -1       149-1.26360E+04-2.31562E+06-1.07452E+07 1.22365E+04-2.35567E+08-2.44288E+06
 -1       150 8.47224E-06-9.17166E-06-2.42144E-08 7.77423E+04-4.01361E+08 8.56351E-07
 -1       151 1.26360E+04 2.31562E+06 1.07452E+07 1.22365E+04-2.35567E+08 2.44288E+06
 -1       152 7.88271E-06-3.67314E-06 2.62260E-06 8.72957E+05-2.96056E+08-5.63916E-07
 -1       153 4.07194E+05 2.09935E+07 3.73866E+08 8.02196E+04-9.52965E+07-9.79141E+05
 -1       154 4.64107E-06-5.51343E-07 5.36442E-06-3.09089E+05-1.62215E+08 5.27158E-07
 -1       155-4.07194E+05-2.09935E+07-3.73866E+08 8.02196E+04-9.52965E+07 9.79141E+05
 -1       156 1.04886E-05 2.31061E-06 4.03821E-06 1.53504E+06 3.01985E+07 4.10364E-07
 -1       157-5.30500E+05 1.13239E+07 2.82633E+08 4.99975E+05 1.31755E+08 2.29492E+06
 -1       158 1.67675E-05 8.59424E-06 3.24193E-06 8.39924E+05 2.18031E+08-2.37767E-06
 -1       159 5.30500E+05-1.13239E+07-2.82633E+08 4.99975E+05 1.31755E+08-2.29492E+06
 -1       160 7.15069E-06 9.98378E-06 5.23496E-06-2.53533E+06 1.54701E+08-5.22239E-07
 -1       161 5.79229E+07 9.86151E+07 1.82378E+08 6.29574E-07-1.51918E+08 1.65496E-05
 -1       162-4.13211E+07-5.74733E+07-4.24224E+08 7.89142E+05-8.94817E+06 2.18485E+07
 -1       163-4.42558E+07-5.98900E+07-4.34487E+08 3.24566E-07 3.27486E+06 1.71629E-05
 -1       164-4.13211E+07-5.74733E+07-4.24224E+08-7.89142E+05-8.94817E+06-2.18485E+07
 -1       165-1.21670E+07-5.50234E+07-5.63992E+08 5.94882E-07 6.01988E+06 3.43286E-06
 -1       166 5.64042E+06-4.11768E+06-5.30422E+08 2.02736E+06 3.00310E+07-4.24258E+06
 -1       167 1.04135E+07 9.51012E+05-5.39934E+08 1.45566E-06 2.47405E+07-1.05002E-05
 -1       168 5.64042E+06-4.11768E+06-5.30422E+08-2.02736E+06 3.00310E+07 4.24258E+06
 -1       169 2.34802E+06 1.64799E+06-1.17795E+08-1.81631E-06 3.34410E+07-1.48159E-05
 -1       170-4.96453E+06-6.73916E+05 3.21505E+08-9.69549E+05 5.23043E+07-8.02615E+06
 -1       171-5.95182E+06-1.53639E+06 3.28584E+08-5.72289E-06 4.39685E+07-2.06644E-05
 -1       172-4.96453E+06-6.73916E+05 3.21505E+08 9.69549E+05 5.23043E+07 8.02615E+06
 -1       173 1.98760E+06 2.00397E+07 5.84959E+08-3.69211E-06 1.85649E+07-1.75536E-05
 -1       174-4.38544E+06 1.35040E+07 7.38722E+08-1.56712E+06-1.15258E+07 1.75385E+06
 -1       175-4.96395E+06 1.22767E+07 7.56279E+08-5.54603E-07-9.90861E+06-9.82545E-06
 -1       176-4.38544E+06 1.35040E+07 7.38722E+08 1.56712E+06-1.15258E+07-1.75385E+06
 -1       177 2.85246E+06 1.84378E+07 4.25935E+08-1.89524E-06-3.32309E+07-3.51621E-06
 -1       178-1.66872E+05 1.09740E+06 2.71902E+07-1.98009E+05-6.05941E+07 9.91978E+06
 -1       179-1.81776E+05 9.01518E+05 2.88196E+07-2.55462E-06-5.14162E+07 3.80119E-06
 -1       180-1.66872E+05 1.09740E+06 2.71902E+07 1.98009E+05-6.05941E+07-9.91978E+06
 -1       181-9.31988E+05-1.31242E+07-4.17620E+08-1.74972E-07-3.93476E+07 1.15018E-05
 -1       182 6.04780E+06-8.45218E+06-7.89919E+08 1.59298E+06-2.51991E+07 3.34529E+06
 -1       183 7.84955E+06-6.82835E+06-8.05617E+08-1.70432E-07-2.20208E+07 1.57845E-05
 -1       184 6.04780E+06-8.45218E+06-7.89919E+08-1.59298E+06-2.51991E+07-3.34529E+06
 -1       185-1.35213E+06-2.12983E+07-7.45239E+08-6.85686E-07 8.34270E+06 1.43347E-05
 -1       186 3.40489E+06-9.41189E+06-5.83227E+08 3.19114E+05 3.93441E+07-7.33116E+06
 -1       187 5.40761E+06-8.89236E+06-5.88321E+08 2.23867E-07 3.32104E+07 1.15326E-05
 -1       188 3.40489E+06-9.41189E+06-5.83227E+08-3.19114E+05 3.93441E+07 7.33116E+06
 -1       189 9.90248E+06 1.55872E+07-2.42075E+08-5.72309E-06 1.56180E+07 6.29458E-06
 -1       190 9.12696E-07-2.57045E-07 1.34110E-07 1.20564E+07-3.48124E+08 5.24335E-07
 -1       191-1.31859E+07-1.83802E+07-1.95796E+08-5.05875E+06-1.93974E+08-1.31841E+07
 -1       192 1.83471E-06-3.14787E-07-6.66827E-07-5.65595E+06-3.66777E+08 2.39350E-07
 -1       193 1.31859E+07 1.83802E+07 1.95796E+08-5.05875E+06-1.93974E+08 1.31841E+07
 -1       194-2.25753E-06-6.05360E-07-2.46614E-06-6.88244E+06-8.24082E+07 2.90456E-07
 -1       195-5.48333E+06-3.07566E+07-2.46104E+08 2.84990E+06 1.13880E+08-1.37400E+06
 -1       196-7.16187E-06-1.39326E-06-3.68850E-06 4.04988E+06 1.92438E+08 6.87432E-07
 -1       197 5.48333E+06 3.07566E+07 2.46104E+08 2.84990E+06 1.13880E+08 1.37400E+06
 -1       198-1.13621E-06-2.36556E-07-7.19912E-07 8.80674E+05 2.80006E+08 5.00120E-07
 -1       199-7.35033E+04 9.11723E+06 1.51421E+08-5.72061E+05 1.93797E+08 2.16327E+06
 -1       200 5.21960E-06 3.45462E-07 2.99886E-06-9.81316E+05 3.26954E+08 4.20841E-07
 -1       201 7.35033E+04-9.11723E+06-1.51421E+08-5.72061E+05 1.93797E+08-2.16327E+06
 -1       202-3.15672E-06-2.85637E-06 1.18837E-06 1.04567E+06 1.32177E+08-1.39466E-07
 -1       203-5.09305E+05 2.34588E+07 3.43192E+08 4.43287E+05-4.59206E+07-6.31375E+05
 -1       204-1.26774E-05-6.09457E-06-2.83774E-06 1.45055E+05-7.86980E+07 5.20959E-07
 -1       205 5.09305E+05-2.34588E+07-3.43192E+08 4.43287E+05-4.59206E+07 6.31375E+05
 -1       206-1.31922E-05-1.21752E-05-6.63847E-06 1.33458E+06-2.52290E+08-9.90462E-07
 -1       207 1.26360E+04 2.31562E+06 1.07452E+07-1.22365E+04-2.35567E+08-2.44288E+06
 -1       208-1.64453E-05-2.20248E-05-1.37091E-05-7.77423E+04-4.01361E+08-1.62516E-06
 -1       209-1.26360E+04-2.31562E+06-1.07452E+07-1.22365E+04-2.35567E+08 2.44288E+06
 -1       210-1.43554E-05-1.31652E-05-9.71183E-06-8.72957E+05-2.96056E+08-4.47733E-07
 -1       211-4.07194E+05-2.09935E+07-3.73866E+08-8.02196E+04-9.52965E+07-9.79141E+05
 -1       212-7.01478E-06-1.46311E-06-3.05846E-06 3.09089E+05-1.62215E+08-1.65129E-06
 -1       213 4.07194E+05 2.09935E+07 3.73866E+08-8.02196E+04-9.52965E+07 9.79141E+05
 -1       214-4.81773E-06 3.17302E-06-2.44379E-06-1.53504E+06 3.01985E+07 5.51343E-07
 -1       215 5.30500E+05-1.13239E+07-2.82633E+08-4.99975E+05 1.31755E+08 2.29492E+06
 -1       216-7.32671E-06 2.27429E-06-2.76323E-06-8.39924E+05 2.18031E+08 1.59838E-06
 -1       217-5.30500E+05 1.13239E+07 2.82633E+08-4.99975E+05 1.31755E+08-2.29492E+06
 -1       218-4.28082E-06 9.03569E-06 1.75834E-06 2.53533E+06 1.54701E+08 1.53331E-06
 -1       219-2.08244E-06-7.33882E-07-1.46031E-06-3.82541E-07-3.28330E+08-3.92029E-07
 -1       220 1.59950E+07 1.98881E+07 2.06549E+08 4.98258E-08-1.59512E+08-6.11064E-06
 -1       221-1.06730E-06-1.54972E-06-1.81049E-06-1.98354E+06-3.44538E+08-7.68341E-08
 -1       222-4.73019E-06-3.08733E-06-3.29688E-06 6.04312E-07-3.22300E+08-3.76545E-07
 -1       223-5.92321E-07-3.45893E-06-9.83477E-07 1.98354E+06-3.44538E+08-3.00352E-07
 -1       224-1.59950E+07-1.98881E+07-2.06549E+08 1.06031E-06-1.59512E+08 7.36117E-06
 -1       225-1.07475E-06-1.81794E-06-5.40167E-07 1.52620E-06-7.57397E+07-7.86269E-07
 -1       226 8.97369E+05 2.43344E+07 2.57593E+08 8.30274E-07 9.52754E+07 1.06718E-06
 -1       227-9.03383E-08 1.97440E-07-1.91852E-07 3.72602E+05 1.79124E+08-3.54601E-07
 -1       228 2.87779E-06 1.78814E-07 1.71014E-06 1.87778E-06 1.65810E+08-1.27725E-06
 -1       229-7.53440E-07-2.82004E-06 8.37259E-07-3.72602E+05 1.79124E+08-5.70435E-08
 -1       230-8.97369E+05-2.43344E+07-2.57593E+08 9.78820E-07 9.52754E+07-5.34556E-06
 -1       231-1.23400E-07 4.17978E-06 1.43237E-06 1.48598E-06 2.45862E+08 1.02213E-07
 -1       232 1.00441E+06-7.59308E+06-1.59349E+08 1.25865E-06 1.65930E+08 8.75536E-06
 -1       233 2.82656E-07 3.46891E-06 1.96882E-06 1.51039E+05 3.07423E+08 1.29850E-06
 -1       234-2.85031E-06 7.95374E-06 2.17929E-06 1.00890E-06 2.87892E+08 1.78529E-06
 -1       235 2.74554E-06 6.96584E-06 1.89058E-06-1.51039E+05 3.07423E+08 5.38887E-07
 -1       236-1.00441E+06 7.59308E+06 1.59349E+08-2.08804E-06 1.65930E+08-8.39436E-06
 -1       237 9.30554E-06 6.83358E-06 5.41471E-06-1.33718E-06 1.15966E+08 1.04582E-06
 -1       238 9.46873E+05-2.07188E+07-3.62732E+08-1.15251E-07-4.00365E+07 7.94818E-06
 -1       239-1.47708E-06-2.62819E-06 7.80448E-07 9.70660E+05-7.44312E+07-1.27271E-07
 -1       240 2.12920E-05 5.11995E-06 8.74419E-06-3.06219E-06-7.01645E+07-1.02533E-07
 -1       241-1.72760E-06 1.19209E-07-7.17118E-08-9.70660E+05-7.44312E+07-1.76253E-07
 -1       242-9.46873E+05 2.07188E+07 3.62732E+08-1.77743E-06-4.00365E+07-4.28967E-06
 -1       243 1.03449E-05 3.62983E-06 4.38094E-06-6.04818E-06-2.23506E+08 4.61005E-07
 -1       244-4.72485E+04-2.05290E+06-1.26065E+07-4.30748E-06-2.03156E+08-2.08849E-07
 -1       245-3.94508E-06-8.10996E-06-4.06988E-06 6.69976E+04-3.78128E+08-1.88593E-07
 -1       246 1.23726E-06 4.48897E-06 3.24007E-06-9.02492E-06-3.54895E+08 3.79514E-08
 -1       247 1.19675E-06-2.99886E-06 4.43310E-07-6.69976E+04-3.78128E+08-1.57626E-07
 -1       248 4.72485E+04 2.05290E+06 1.26065E+07-4.74066E-06-2.03156E+08 1.89769E-06
 -1       249 1.02771E-06 3.15066E-06 1.26380E-06-4.24165E-06-2.62640E+08 4.98490E-07
 -1       250-1.32711E+06 1.78927E+07 3.91265E+08-3.47471E-06-8.37250E+07-5.77339E-06
 -1       251-6.56117E-07 6.25849E-07-5.88596E-07-8.14360E+05-1.53822E+08-1.11648E-06
 -1       252 1.50441E-06 1.39652E-06-1.21957E-06-3.98868E-07-1.45429E+08 4.95667E-07
 -1       253 9.73698E-07-2.36556E-07 5.23403E-07 8.14360E+05-1.53822E+08 1.05007E-06
 -1       254 1.32711E+06-1.78927E+07-3.91265E+08 6.32717E-08-8.37250E+07 7.07374E-06
 -1       255 7.63917E-07-4.63170E-06-4.15370E-07-2.23733E-06 2.40020E+07-3.28320E-07
 -1       256-2.37142E+06 1.03857E+07 2.88686E+08-2.97301E-06 1.10346E+08-5.11168E-06
 -1       257-6.83591E-07-1.37091E-06-1.11759E-06-9.99013E+05 2.02757E+08 3.26196E-07
 -1       258-3.67500E-06-1.31018E-05-4.37489E-06-5.34882E-06 1.87482E+08-3.53612E-07
 -1       259 1.72947E-06-6.29947E-06-3.01749E-06 9.99013E+05 2.02757E+08-1.06939E-06
 -1       260 2.37142E+06-1.03857E+07-2.88686E+08-2.79909E-06 1.10346E+08 4.87943E-06
 -1       261-1.61491E-06-1.73906E-05-6.22729E-06 2.25689E-06 1.29590E+08 1.08825E-06
 -3
    1PSTEP                        23           1           1          
    1PGM                1.000000E+00                                  
    1PGK                7.522138E+06                                  
    1PHID                         -1                                  
    1PSUBC                         0                                  
    1PMODE                        12                                  
  100CL  112 4.36507E+02         261                     2   12MODAL      1
 -4  DISP        4    1
 -5  D1          1    2    1    0
 -5  D2          1    2    2    0
 -5  D3          1    2    3    0
 -5  ALL         1    2    0    0    1ALL
 -1         1 0.00000E+00 0.00000E+00 0.00000E+00
 -1         2 0.00000E+00 0.00000E+00 0.00000E+00
 -1         3 0.00000E+00 0.00000E+00 0.00000E+00
 -1         4 0.00000E+00 0.00000E+00 0.00000E+00
 -1         5 7.20999E-03-4.34400E-03 7.11715E-04
 -1         6 7.20999E-03 4.34400E-03-7.11715E-04
 -1         7-7.20999E-03 4.34400E-03 7.11715E-04
 -1         8-7.20999E-03-4.34400E-03-7.11715E-04
 -1         9 0.00000E+00 0.00000E+00 0.00000E+00
 -1        10 0.00000E+00 0.00000E+00 0.00000E+00
 -1        11 0.00000E+00 0.00000E+00 0.00000E+00
 -1        12 0.00000E+00 0.00000E+00 0.00000E+00
 -1        13 0.00000E+00 0.00000E+00 0.00000E+00
 -1        14 0.00000E+00 0.00000E+00 0.00000E+00
 -1        15 0.00000E+00 0.00000E+00 0.00000E+00
 -1        16 0.00000E+00 0.00000E+00 0.00000E+00
 -1        17 0.00000E+00 0.00000E+00 0.00000E+00
 -1        18 0.00000E+00 0.00000E+00 0.00000E+00
 -1        19 0.00000E+00 0.00000E+00 0.00000E+00
 -1        20 0.00000E+00 0.00000E+00 0.00000E+00
 -1        21 7.17221E-03-2.14254E-03 3.51978E-04
 -1        22 7.12012E-03 1.55258E-16 1.25767E-16
 -1        23 7.17221E-03 2.14254E-03-3.51978E-04
 -1        24 3.69016E-03 4.28647E-03-5.03525E-04
 -1        25-3.90313E-18 4.21482E-03-1.27114E-17
 -1        26-3.69016E-03 4.28647E-03 5.03525E-04
 -1        27-7.17221E-03 2.14254E-03 3.51978E-04
 -1        28-7.12012E-03 1.43548E-16-1.55258E-16
 -1        29-7.17221E-03-2.14254E-03-3.51978E-04
 -1        30-3.69016E-03-4.28647E-03-5.03525E-04
 -1        31-1.35525E-18-4.21482E-03-1.64799E-17
 -1        32 3.69016E-03-4.28647E-03 5.03525E-04
 -1        33 2.62088E-03 1.67750E-03-5.48318E-04
 -1        34 5.12736E-03 3.43903E-03-4.34618E-04
 -1        35 6.65149E-03 4.42127E-03-1.39251E-04
 -1        36 6.38973E-03 4.24184E-03 2.58340E-04
 -1        37 4.64459E-03 3.07154E-03 6.45968E-04
 -1        38 1.75122E-03 1.16385E-03 8.24692E-04
 -1        39-1.53077E-03-1.01601E-03 8.67579E-04
 -1        40-4.45612E-03-2.93919E-03 6.38886E-04
 -1        41-6.32031E-03-4.19164E-03 3.04490E-04
 -1        42-6.64026E-03-4.38199E-03-1.26397E-04
 -1        43-5.38302E-03-3.57100E-03-5.34814E-04
 -1        44-2.80730E-03-1.84765E-03-7.79262E-04
 -1        45 4.41132E-04 2.98472E-04-9.08016E-04
 -1        46 3.60171E-03 2.37635E-03-7.99447E-04
 -1        47 5.93041E-03 3.88874E-03-7.08584E-04
 -1        48 5.93041E-03-3.88874E-03 7.08584E-04
 -1        49 3.60171E-03-2.37635E-03 7.99447E-04
 -1        50 4.41132E-04-2.98472E-04 9.08016E-04
 -1        51-2.80730E-03 1.84765E-03 7.79262E-04
 -1        52-5.38302E-03 3.57100E-03 5.34814E-04
 -1        53-6.64026E-03 4.38199E-03 1.26397E-04
 -1        54-6.32031E-03 4.19164E-03-3.04490E-04
 -1        55-4.45612E-03 2.93919E-03-6.38886E-04
 -1        56-1.53077E-03 1.01601E-03-8.67579E-04
 -1        57 1.75122E-03-1.16385E-03-8.24692E-04
 -1        58 4.64459E-03-3.07154E-03-6.45968E-04
 -1        59 6.38973E-03-4.24184E-03-2.58340E-04
 -1        60 6.65149E-03-4.42127E-03 1.39251E-04
 -1        61 5.12736E-03-3.43903E-03 4.34618E-04
 -1        62 2.62088E-03-1.67750E-03 5.48318E-04
 -1        63-2.62088E-03 1.67750E-03 5.48318E-04
 -1        64-5.12736E-03 3.43903E-03 4.34618E-04
 -1        65-6.65149E-03 4.42127E-03 1.39251E-04
 -1        66-6.38973E-03 4.24184E-03-2.58340E-04
 -1        67-4.64459E-03 3.07154E-03-6.45968E-04
 -1        68-1.75122E-03 1.16385E-03-8.24692E-04
 -1        69 1.53077E-03-1.01601E-03-8.67579E-04
 -1        70 4.45612E-03-2.93919E-03-6.38886E-04
 -1        71 6.32031E-03-4.19164E-03-3.04490E-04
 -1        72 6.64026E-03-4.38199E-03 1.26397E-04
 -1        73 5.38302E-03-3.57100E-03 5.34814E-04
 -1        74 2.80730E-03-1.84765E-03 7.79262E-04
 -1        75-4.41132E-04 2.98472E-04 9.08016E-04
 -1        76-3.60171E-03 2.37635E-03 7.99447E-04
 -1        77-5.93041E-03 3.88874E-03 7.08584E-04
 -1        78-2.62088E-03-1.67750E-03-5.48318E-04
 -1        79-5.12736E-03-3.43903E-03-4.34618E-04
 -1        80-6.65149E-03-4.42127E-03-1.39251E-04
 -1        81-6.38973E-03-4.24184E-03 2.58340E-04
 -1        82-4.64459E-03-3.07154E-03 6.45968E-04
 -1        83-1.75122E-03-1.16385E-03 8.24692E-04
 -1        84 1.53077E-03 1.01601E-03 8.67579E-04
 -1        85 4.45612E-03 2.93919E-03 6.38886E-04
 -1        86 6.32031E-03 4.19164E-03 3.04490E-04
 -1        87 6.64026E-03 4.38199E-03-1.26397E-04
 -1        88 5.38302E-03 3.57100E-03-5.34814E-04
 -1        89 2.80730E-03 1.84765E-03-7.79262E-04
 -1        90-4.41132E-04-2.98472E-04-9.08016E-04
 -1        91-3.60171E-03-2.37635E-03-7.99447E-04
 -1        92-5.93041E-03-3.88874E-03-7.08584E-04
 -1        93 0.00000E+00 0.00000E+00 0.00000E+00
 -1        94 0.00000E+00 0.00000E+00 0.00000E+00
 -1        95 0.00000E+00 0.00000E+00 0.00000E+00
 -1        96 0.00000E+00 0.00000E+00 0.00000E+00
 -1        97 0.00000E+00 0.00000E+00 0.00000E+00
 -1        98 3.66359E-03 1.45717E-16 5.42101E-17
 -1        99 9.54098E-18-2.01254E-03-1.30104E-17
 -1       100 1.43115E-17 1.51138E-16-1.47451E-17
 -1       101-1.95156E-18 2.01254E-03-1.12757E-17
 -1       102-3.66359E-03 1.75641E-16-8.41341E-17
 -1       103 2.60944E-03-6.46930E-17-2.34730E-17
 -1       104 5.18478E-03-1.71656E-03-1.25407E-04
 -1       105 5.23300E-03-1.24981E-16-1.60462E-17
 -1       106 5.18478E-03 1.71656E-03 1.25407E-04
 -1       107 6.56690E-03-1.47451E-16 3.10624E-17
 -1       108 6.44096E-03-2.10240E-03 7.63837E-06
 -1       109 6.42510E-03-1.08420E-16 8.42425E-17
 -1       110 6.44096E-03 2.10240E-03-7.63837E-06
 -1       111 4.62177E-03-2.75387E-17 1.13272E-16
 -1       112 1.76659E-03-5.78476E-04-7.06007E-05
 -1       113 1.76976E-03 6.86707E-17 1.07987E-16
 -1       114 1.76659E-03 5.78476E-04 7.06007E-05
 -1       115-1.52937E-03 1.22949E-16 5.55112E-17
 -1       116-4.47680E-03 1.45888E-03-4.81658E-05
 -1       117-4.45893E-03 1.39645E-16-9.92045E-18
 -1       118-4.47680E-03-1.45888E-03 4.81658E-05
 -1       119-6.29562E-03 8.66820E-17-5.57043E-17
 -1       120-6.67420E-03 2.17415E-03 1.05441E-05
 -1       121-6.64846E-03 1.62630E-17-7.89299E-17
 -1       122-6.67420E-03-2.17415E-03-1.05441E-05
 -1       123-5.36141E-03-6.63532E-17-6.24500E-17
 -1       124-2.82244E-03 9.17874E-04 5.99677E-05
 -1       125-2.81285E-03-1.19045E-16-1.64799E-17
 -1       126-2.82244E-03-9.17874E-04-5.99677E-05
 -1       127 4.31462E-04-1.03589E-16 3.72966E-17
 -1       128 3.61263E-03-1.18440E-03 1.10666E-04
 -1       129 3.59957E-03-3.65376E-17 8.84709E-17
 -1       130 3.61263E-03 1.18440E-03-1.10666E-04
 -1       131 5.86159E-03 4.18231E-17 1.18395E-16
 -1       132-1.20346E-17 1.95169E-03 9.81203E-18
 -1       133 2.57219E-03 3.35833E-03-7.48834E-04
 -1       134-2.32019E-17 3.29277E-03 1.10047E-17
 -1       135-2.57219E-03 3.35833E-03 7.48834E-04
 -1       136-1.47451E-17 4.15863E-03 2.98156E-19
 -1       137 3.19310E-03 4.14014E-03 3.67352E-04
 -1       138 2.49366E-18 4.07577E-03-5.96311E-18
 -1       139-3.19310E-03 4.14014E-03-3.67352E-04
 -1       140 4.29344E-17 2.92825E-03-8.02310E-18
 -1       141 8.79317E-04 1.13496E-03 1.05808E-03
 -1       142 6.77626E-17 1.11838E-03 9.32414E-18
 -1       143-8.79317E-04 1.13496E-03-1.05808E-03
 -1       144 5.37764E-17-9.64901E-04 2.32019E-17
 -1       145-2.23236E-03-2.87364E-03 8.26049E-04
 -1       146 2.64545E-17-2.83626E-03 2.50451E-17
 -1       147 2.23236E-03-2.87364E-03-8.26049E-04
 -1       148 5.63785E-18-3.97495E-03 1.84314E-17
 -1       149-3.32552E-03-4.28460E-03-1.61619E-04
 -1       150-3.55076E-18-4.22799E-03 4.33681E-19
 -1       151 3.32552E-03-4.28460E-03 1.61619E-04
 -1       152-9.75782E-18-3.38287E-03-5.42101E-18
 -1       153-1.40432E-03-1.80750E-03-1.00810E-03
 -1       154 3.68629E-18-1.78477E-03-1.27936E-17
 -1       155 1.40432E-03-1.80750E-03 1.00810E-03
 -1       156 2.71051E-18 2.83781E-04-6.88468E-18
 -1       157 1.78847E-03 2.31177E-03-9.72773E-04
 -1       158 1.30104E-17 2.25909E-03-3.27971E-18
 -1       159-1.78847E-03 2.31177E-03 9.72773E-04
 -1       160 1.51788E-18 3.85552E-03-2.83925E-18
 -1       161-2.60944E-03-7.07984E-17 3.25261E-17
 -1       162-5.18478E-03 1.71656E-03-1.25407E-04
 -1       163-5.23300E-03-1.33953E-16 3.20924E-17
 -1       164-5.18478E-03-1.71656E-03 1.25407E-04
 -1       165-6.56690E-03-1.50487E-16-6.28837E-18
 -1       166-6.44096E-03 2.10240E-03 7.63837E-06
 -1       167-6.42510E-03-1.16443E-16-5.37764E-17
 -1       168-6.44096E-03-2.10240E-03-7.63837E-06
 -1       169-4.62177E-03-3.10082E-17-7.74120E-17
 -1       170-1.76659E-03 5.78476E-04-7.06007E-05
 -1       171-1.76976E-03 5.75711E-17-6.67869E-17
 -1       172-1.76659E-03-5.78476E-04 7.06007E-05
 -1       173 1.52937E-03 1.25713E-16-3.55618E-17
 -1       174 4.47680E-03-1.45888E-03-4.81658E-05
 -1       175 4.45893E-03 1.50176E-16 2.38524E-17
 -1       176 4.47680E-03 1.45888E-03 4.81658E-05
 -1       177 6.29562E-03 1.02132E-16 6.46184E-17
 -1       178 6.67420E-03-2.17415E-03 1.05441E-05
 -1       179 6.64846E-03 2.29851E-17 7.80626E-17
 -1       180 6.67420E-03 2.17415E-03-1.05441E-05
 -1       181 5.36141E-03-7.35089E-17 5.50775E-17
 -1       182 2.82244E-03-9.17874E-04 5.99677E-05
 -1       183 2.81285E-03-1.19913E-16 4.77049E-18
 -1       184 2.82244E-03 9.17874E-04-5.99677E-05
 -1       185-4.31462E-04-1.02782E-16-6.12574E-17
 -1       186-3.61263E-03 1.18440E-03 1.10666E-04
 -1       187-3.59957E-03-4.03188E-17-1.11022E-16
 -1       188-3.61263E-03-1.18440E-03-1.10666E-04
 -1       189-5.86159E-03 4.72712E-17-1.55258E-16
 -1       190-1.34441E-17-1.95169E-03-1.08420E-18
 -1       191-2.57219E-03-3.35833E-03-7.48834E-04
 -1       192-1.74557E-17-3.29277E-03 1.10589E-17
 -1       193 2.57219E-03-3.35833E-03 7.48834E-04
 -1       194-1.95427E-17-4.15863E-03 2.80266E-17
 -1       195-3.19310E-03-4.14014E-03 3.67352E-04
 -1       196 3.25261E-19-4.07577E-03 3.64834E-17
 -1       197 3.19310E-03-4.14014E-03-3.67352E-04
 -1       198 3.40439E-17-2.92825E-03 3.53450E-17
 -1       199-8.79317E-04-1.13496E-03 1.05808E-03
 -1       200 6.01732E-17-1.11838E-03 2.21177E-17
 -1       201 8.79317E-04-1.13496E-03-1.05808E-03
 -1       202 4.77184E-17 9.64901E-04 2.16840E-18
 -1       203 2.23236E-03 2.87364E-03 8.26049E-04
 -1       204 3.39355E-17 2.83626E-03-1.21431E-17
 -1       205-2.23236E-03 2.87364E-03-8.26049E-04
 -1       206-2.27682E-18 3.97495E-03-1.73472E-17
 -1       207 3.32552E-03 4.28460E-03-1.61619E-04
 -1       208-3.57787E-18 4.22799E-03-1.01915E-17
 -1       209-3.32552E-03 4.28460E-03 1.61619E-04
 -1       210-1.23599E-17 3.38287E-03 1.84314E-18
 -1       211 1.40432E-03 1.80750E-03-1.00810E-03
 -1       212 1.08420E-17 1.78477E-03-4.44523E-18
 -1       213-1.40432E-03 1.80750E-03 1.00810E-03
 -1       214 1.08420E-17-2.83781E-04-1.02999E-17
 -1       215-1.78847E-03-2.31177E-03-9.72773E-04
 -1       216 1.04083E-17-2.25909E-03-1.47451E-17
 -1       217 1.78847E-03-2.31177E-03 9.72773E-04
 -1       218 5.39391E-18-3.85552E-03-1.34441E-17
 -1       219-1.11402E-17-6.59195E-17 3.46945E-18
 -1       220 2.62826E-03-1.28153E-16 8.44322E-18
 -1       221-1.69136E-17-1.63683E-03 1.08420E-17
 -1       222-1.45283E-17-1.33032E-16 1.01915E-17
 -1       223-1.95156E-17 1.63683E-03 1.01373E-17
 -1       224-2.62826E-03-1.33953E-16 1.12757E-17
 -1       225-1.68051E-17-1.51788E-16 1.52601E-17
 -1       226 3.24659E-03-1.17636E-16 4.43981E-17
 -1       227 1.02999E-17-1.99339E-03 2.29851E-17
 -1       228 1.42030E-17-1.17040E-16 1.40133E-17
 -1       229 9.82558E-18 1.99339E-03 7.35902E-18
 -1       230-3.24659E-03-1.17094E-16-1.56125E-17
 -1       231 3.92481E-17-3.18976E-17 1.55041E-17
 -1       232 8.94567E-04 7.21808E-17 5.12828E-17
 -1       233 6.14743E-17-5.49130E-04 1.95156E-17
 -1       234 7.19097E-17 6.60008E-17 1.66967E-17
 -1       235 7.38884E-17 5.49130E-04 1.19262E-17
 -1       236-8.94567E-04 5.12828E-17-2.08167E-17
 -1       237 6.00648E-17 1.36826E-16 1.21431E-17
 -1       238-2.25368E-03 1.44849E-16 2.60209E-18
 -1       239 4.83554E-17 1.39000E-03-3.03577E-18
 -1       240 4.57533E-17 1.50054E-16 7.37257E-18
 -1       241 1.88651E-17-1.39000E-03 1.48536E-17
 -1       242 2.25368E-03 1.57914E-16 1.43115E-17
 -1       243 5.42101E-18 9.92994E-17 1.62630E-18
 -1       244-3.36064E-03 1.88651E-17-3.15503E-17
 -1       245-4.77049E-18 2.07048E-03-4.64852E-18
 -1       246-8.18573E-18 1.71304E-17-3.57787E-18
 -1       247 2.98156E-19-2.07048E-03 2.16840E-19
 -1       248 3.36064E-03 9.97466E-18 2.77556E-17
 -1       249-2.60209E-18-7.06900E-17-8.13152E-18
 -1       250-1.41992E-03-1.21973E-16-4.98733E-18
 -1       251 1.69136E-17 8.77113E-04-5.31259E-18
 -1       252 9.75782E-18-1.28912E-16-4.66207E-18
 -1       253 9.97466E-18-8.77113E-04-7.91468E-18
 -1       254 1.41992E-03-1.23816E-16-2.60209E-18
 -1       255 6.72205E-18-1.02566E-16-5.42101E-18
 -1       256 1.80093E-03-5.25838E-17 3.07913E-17
 -1       257 1.43047E-17-1.12624E-03-1.62630E-17
 -1       258 1.09504E-17-4.49944E-17-1.14925E-17
 -1       259 1.58294E-17 1.12624E-03-8.99888E-18
 -1       260-1.80093E-03-3.64292E-17-5.00901E-17
 -1       261 1.08420E-17 4.67291E-17-1.73472E-17
 -3
    1PSTEP                        24           1           1          
    1PGM                1.000000E+00                                  
    1PGK                7.522138E+06                                  
    1PHID                         -1                                  
    1PSUBC                         0                                  
    1PMODE                        12                                  
  100CL  112 4.36507E+02         261                     2   12MODAL      1
 -4  STRESS      6    1
 -5  SXX         1    4    1    1
 -5  SYY         1    4    2    2
 -5  SZZ         1    4    3    3
 -5  SXY         1    4    1    2
 -5  SYZ         1    4    2    3
 -5  SZX         1    4    3    1
 -1         1 1.66690E+08 1.30660E+08 4.84950E+08-8.63144E+06-2.87384E+08 3.97662E+08
 -1         2-1.66690E+08-1.30660E+08-4.84950E+08-8.63144E+06 2.87384E+08 3.97662E+08
 -1         3 1.66690E+08 1.30660E+08 4.84950E+08-8.63144E+06 2.87384E+08-3.97662E+08
 -1         4-1.66690E+08-1.30660E+08-4.84950E+08-8.63144E+06-2.87384E+08-3.97662E+08
 -1         5-2.18198E+07 1.71377E+07 2.04074E+04 4.92802E+05 3.14388E+06-1.36313E+06
 -1         6 2.18198E+07-1.71377E+07-2.04074E+04 4.92802E+05-3.14388E+06-1.36313E+06
 -1         7-2.18198E+07 1.71377E+07 2.04074E+04 4.92802E+05-3.14388E+06 1.36313E+06
 -1         8 2.18198E+07-1.71377E+07-2.04074E+04 4.92802E+05 3.14388E+06 1.36313E+06
 -1         9 5.73938E+07 4.62997E+07 2.04991E+08-6.32464E+06-1.43610E+08 3.91637E+08
 -1        10-6.89179E-06-7.63312E-06-1.91778E-05-4.01784E+06-9.67458E-06 3.85611E+08
 -1        11-5.73938E+07-4.62997E+07-2.04991E+08-6.32464E+06 1.43610E+08 3.91637E+08
 -1        12-8.61086E+07-4.31584E+07-2.73859E+08 1.00703E+07 3.37405E+08 1.99058E+08
 -1        13 4.94719E-06 2.14577E-06 8.21427E-06 2.87720E+07 3.87427E+08-1.68325E-06
 -1        14 8.61086E+07 4.31584E+07 2.73859E+08 1.00703E+07 3.37405E+08-1.99058E+08
 -1        15 5.73938E+07 4.62997E+07 2.04991E+08-6.32464E+06 1.43610E+08-3.91637E+08
 -1        16 4.14997E-06 7.12276E-06 2.27392E-05-4.01784E+06-1.07624E-05-3.85611E+08
 -1        17-5.73938E+07-4.62997E+07-2.04991E+08-6.32464E+06-1.43610E+08-3.91637E+08
 -1        18-8.61086E+07-4.31584E+07-2.73859E+08 1.00703E+07-3.37405E+08-1.99058E+08
 -1        19-1.85659E-06-1.70618E-06-4.60446E-06 2.87720E+07-3.87427E+08-2.15275E-06
 -1        20 8.61086E+07 4.31584E+07 2.73859E+08 1.00703E+07-3.37405E+08 1.99058E+08
 -1        21-3.02071E+07 1.35879E+07 1.56894E+07-8.92947E+06 2.40476E+06 1.41838E+06
 -1        22-3.08454E-06-3.44031E-06-3.57069E-06-1.83517E+07 4.16674E-06 4.19990E+06
 -1        23 3.02071E+07-1.35879E+07-1.56894E+07-8.92947E+06-2.40476E+06 1.41838E+06
 -1        24 1.32374E+07-1.94486E+07 2.72004E+07-2.06479E+07 4.36736E+07-6.00790E+06
 -1        25 6.80611E-06-1.74847E-05-1.05947E-05-4.17886E+07 9.04911E+07-4.60073E-07
 -1        26-1.32374E+07 1.94486E+07-2.72004E+07-2.06479E+07 4.36736E+07 6.00790E+06
 -1        27-3.02071E+07 1.35879E+07 1.56894E+07-8.92947E+06-2.40476E+06-1.41838E+06
 -1        28-1.01551E-05-4.21936E-05-7.18422E-06-1.83517E+07-5.28991E-07-4.19990E+06
 -1        29 3.02071E+07-1.35879E+07-1.56894E+07-8.92947E+06 2.40476E+06-1.41838E+06
 -1        30 1.32374E+07-1.94486E+07 2.72004E+07-2.06479E+07-4.36736E+07 6.00790E+06
 -1        31-2.16113E-06-8.88109E-06-5.52461E-06-4.17886E+07-9.04911E+07 4.74043E-07
 -1        32-1.32374E+07 1.94486E+07-2.72004E+07-2.06479E+07-4.36736E+07-6.00790E+06
 -1        33-5.65801E+07-1.96466E+07-1.40569E+08-4.73845E+06 1.97577E+08 2.04738E+08
 -1        34 4.12708E+07 3.67472E+07 1.75182E+08 2.69188E+06 7.78679E+07 2.44340E+07
 -1        35 2.85674E+07-1.57665E+07 1.89984E+08 4.27682E+06 5.99417E+06 9.03139E+05
 -1        36 1.37051E+07-1.17850E+07 2.32633E+08 2.34683E+06-4.34366E+07-2.92823E+07
 -1        37 4.90034E+06-8.18973E+06 1.46311E+08 1.49643E+06-1.05372E+08-7.48987E+07
 -1        38 7.27048E+06-7.48866E+05 6.44518E+07 8.70176E+05-1.63357E+08-1.24522E+08
 -1        39-2.34741E+06 2.38265E+06-4.86207E+07-3.41423E+05-1.47895E+08-1.10217E+08
 -1        40-1.11746E+07 6.01657E+06-1.62661E+08-2.16842E+06-1.25458E+08-9.30606E+07
 -1        41-1.47904E+07 1.10679E+07-2.01176E+08-2.95936E+06-5.11560E+07-3.78376E+07
 -1        42-1.59176E+07 9.13466E+06-2.42322E+08-3.40237E+06 2.45476E+07 1.82487E+07
 -1        43-1.21534E+07 9.68518E+06-1.71864E+08-1.83572E+06 8.99989E+07 6.66797E+07
 -1        44-5.86214E+06 5.04163E+06-1.02995E+08 9.11388E+05 1.51906E+08 1.11840E+08
 -1        45 9.78039E+05-3.86323E+06-4.43098E+06-2.90208E+06 1.54532E+08 1.13985E+08
 -1        46 7.27086E+06-1.06270E+06 8.86806E+07 1.49576E+06 1.49979E+08 1.03530E+08
 -1        47 1.55535E+07-6.22504E+06 4.08500E+07 5.67970E+06 7.04893E+07 4.59854E+07
 -1        48-1.55535E+07 6.22504E+06-4.08500E+07 5.67970E+06-7.04893E+07 4.59854E+07
 -1        49-7.27086E+06 1.06270E+06-8.86806E+07 1.49576E+06-1.49979E+08 1.03530E+08
 -1        50-9.78039E+05 3.86323E+06 4.43098E+06-2.90208E+06-1.54532E+08 1.13985E+08
 -1        51 5.86214E+06-5.04163E+06 1.02995E+08 9.11388E+05-1.51906E+08 1.11840E+08
 -1        52 1.21534E+07-9.68518E+06 1.71864E+08-1.83572E+06-8.99989E+07 6.66797E+07
 -1        53 1.59176E+07-9.13466E+06 2.42322E+08-3.40237E+06-2.45476E+07 1.82487E+07
 -1        54 1.47904E+07-1.10679E+07 2.01176E+08-2.95936E+06 5.11560E+07-3.78376E+07
 -1        55 1.11746E+07-6.01657E+06 1.62661E+08-2.16842E+06 1.25458E+08-9.30606E+07
 -1        56 2.34741E+06-2.38265E+06 4.86207E+07-3.41423E+05 1.47895E+08-1.10217E+08
 -1        57-7.27048E+06 7.48866E+05-6.44518E+07 8.70176E+05 1.63357E+08-1.24522E+08
 -1        58-4.90034E+06 8.18973E+06-1.46311E+08 1.49643E+06 1.05372E+08-7.48987E+07
 -1        59-1.37051E+07 1.17850E+07-2.32633E+08 2.34683E+06 4.34366E+07-2.92823E+07
 -1        60-2.85674E+07 1.57665E+07-1.89984E+08 4.27682E+06-5.99417E+06 9.03139E+05
 -1        61-4.12708E+07-3.67472E+07-1.75182E+08 2.69188E+06-7.78679E+07 2.44340E+07
 -1        62 5.65801E+07 1.96466E+07 1.40569E+08-4.73845E+06-1.97577E+08 2.04738E+08
 -1        63 5.65801E+07 1.96466E+07 1.40569E+08-4.73845E+06 1.97577E+08-2.04738E+08
 -1        64-4.12708E+07-3.67472E+07-1.75182E+08 2.69188E+06 7.78679E+07-2.44340E+07
 -1        65-2.85674E+07 1.57665E+07-1.89984E+08 4.27682E+06 5.99417E+06-9.03139E+05
 -1        66-1.37051E+07 1.17850E+07-2.32633E+08 2.34683E+06-4.34366E+07 2.92823E+07
 -1        67-4.90034E+06 8.18973E+06-1.46311E+08 1.49643E+06-1.05372E+08 7.48987E+07
 -1        68-7.27048E+06 7.48866E+05-6.44518E+07 8.70176E+05-1.63357E+08 1.24522E+08
 -1        69 2.34741E+06-2.38265E+06 4.86207E+07-3.41423E+05-1.47895E+08 1.10217E+08
 -1        70 1.11746E+07-6.01657E+06 1.62661E+08-2.16842E+06-1.25458E+08 9.30606E+07
 -1        71 1.47904E+07-1.10679E+07 2.01176E+08-2.95936E+06-5.11560E+07 3.78376E+07
 -1        72 1.59176E+07-9.13466E+06 2.42322E+08-3.40237E+06 2.45476E+07-1.82487E+07
 -1        73 1.21534E+07-9.68518E+06 1.71864E+08-1.83572E+06 8.99989E+07-6.66797E+07
 -1        74 5.86214E+06-5.04163E+06 1.02995E+08 9.11388E+05 1.51906E+08-1.11840E+08
 -1        75-9.78039E+05 3.86323E+06 4.43098E+06-2.90208E+06 1.54532E+08-1.13985E+08
 -1        76-7.27086E+06 1.06270E+06-8.86806E+07 1.49576E+06 1.49979E+08-1.03530E+08
 -1        77-1.55535E+07 6.22504E+06-4.08500E+07 5.67970E+06 7.04893E+07-4.59854E+07
 -1        78-5.65801E+07-1.96466E+07-1.40569E+08-4.73845E+06-1.97577E+08-2.04738E+08
 -1        79 4.12708E+07 3.67472E+07 1.75182E+08 2.69188E+06-7.78679E+07-2.44340E+07
 -1        80 2.85674E+07-1.57665E+07 1.89984E+08 4.27682E+06-5.99417E+06-9.03139E+05
 -1        81 1.37051E+07-1.17850E+07 2.32633E+08 2.34683E+06 4.34366E+07 2.92823E+07
 -1        82 4.90034E+06-8.18973E+06 1.46311E+08 1.49643E+06 1.05372E+08 7.48987E+07
 -1        83 7.27048E+06-7.48866E+05 6.44518E+07 8.70176E+05 1.63357E+08 1.24522E+08
 -1        84-2.34741E+06 2.38265E+06-4.86207E+07-3.41423E+05 1.47895E+08 1.10217E+08
 -1        85-1.11746E+07 6.01657E+06-1.62661E+08-2.16842E+06 1.25458E+08 9.30606E+07
 -1        86-1.47904E+07 1.10679E+07-2.01176E+08-2.95936E+06 5.11560E+07 3.78376E+07
 -1        87-1.59176E+07 9.13466E+06-2.42322E+08-3.40237E+06-2.45476E+07-1.82487E+07
 -1        88-1.21534E+07 9.68518E+06-1.71864E+08-1.83572E+06-8.99989E+07-6.66797E+07
 -1        89-5.86214E+06 5.04163E+06-1.02995E+08 9.11388E+05-1.51906E+08-1.11840E+08
 -1        90 9.78039E+05-3.86323E+06-4.43098E+06-2.90208E+06-1.54532E+08-1.13985E+08
 -1        91 7.27086E+06-1.06270E+06 8.86806E+07 1.49576E+06-1.49979E+08-1.03530E+08
 -1        92 1.55535E+07-6.22504E+06 4.08500E+07 5.67970E+06-7.04893E+07-4.59854E+07
 -1        93-2.01538E-06-2.56859E-06-7.61822E-06 1.46838E+07-9.52370E-06 1.93120E+08
 -1        94 2.07219E-08-5.12227E-07-1.46218E-06 3.10787E+07-1.93454E+08-2.07010E-06
 -1        95 1.69927E-06 6.11995E-07 1.54984E-06 3.33855E+07-9.25106E-06-1.83692E-06
 -1        96 3.22401E-06 1.34483E-06 4.81680E-06 3.10787E+07 1.93454E+08-1.68488E-06
 -1        97 2.34507E-06 2.92622E-06 1.09449E-05 1.46838E+07-9.94583E-06-1.93120E+08
 -1        98-3.03704E-06 6.41495E-06 2.42330E-06-8.96678E+07 4.14345E-06-3.09602E+06
 -1        99 1.57859E-07 7.74488E-06 2.94112E-06-1.01386E+08-4.26390E+07-1.09896E-06
 -1       100 2.05915E-06 2.45953E-05 1.13179E-05-1.60984E+08 4.08175E-06-1.04681E-06
 -1       101 4.22355E-06 3.66569E-06 3.16650E-07-1.01386E+08 4.26390E+07 5.86733E-08
 -1       102-1.52364E-06-4.63612E-06 3.51667E-06-8.96678E+07 1.75717E-06 3.09602E+06
 -1       103-2.95602E-06-1.47708E-06-3.16277E-06-7.02127E+06-5.19492E-06 4.34891E+08
 -1       104-1.29164E+07-1.28100E+07-7.88179E+07-2.67436E+05-2.63804E+07 2.39738E+08
 -1       105 2.00979E-06 5.15208E-06 1.59703E-05-3.22675E+06-5.66244E-07 4.55042E+08
 -1       106 1.29164E+07 1.28100E+07 7.88179E+07-2.67436E+05 2.63804E+07 2.39738E+08
 -1       107 1.35973E-07 2.28733E-06 1.97589E-05 2.35732E+06 6.91041E-07 1.30027E+08
 -1       108-3.21137E+07 5.62758E+06-1.00018E+08-1.34127E+05 1.68129E+07-1.10895E+08
 -1       109-4.98071E-06-3.49514E-06 1.74642E-05-2.61508E+06 1.35414E-06-1.92509E+08
 -1       110 3.21137E+07-5.62758E+06 1.00018E+08-1.34127E+05-1.68129E+07-1.10895E+08
 -1       111 1.32248E-07-6.91507E-08 4.00469E-06-3.02518E+06 1.08778E-06-3.87081E+08
 -1       112-6.39707E+06 1.42044E+06-2.80341E+07-5.73240E+04 6.90140E+07-3.43363E+08
 -1       113 6.04196E-06 4.95673E-06-1.05486E-05-9.84824E+05-1.31596E-06-5.62204E+08
 -1       114 6.39707E+06-1.42044E+06 2.80341E+07-5.73240E+04-6.90140E+07-3.43363E+08
 -1       115 9.22941E-06 2.76801E-06-1.90604E-05 9.73770E+05-7.43195E-07-5.09439E+08
 -1       116 1.61725E+07-4.80775E+06 7.01619E+07 1.93550E+05 5.27153E+07-2.66422E+08
 -1       117 1.14515E-05 1.86544E-06-2.18842E-05 2.55552E+06-1.62050E-07-4.39783E+08
 -1       118-1.61725E+07 4.80775E+06-7.01619E+07 1.93550E+05-5.27153E+07-2.66422E+08
 -1       119 4.16487E-06 1.12504E-06-1.27442E-05 2.30538E+06-7.88365E-07-1.80133E+08
 -1       120 2.54930E+07-6.72167E+06 1.04741E+08 1.89303E+05-1.03190E+07 5.21723E+07
 -1       121-2.59280E-06 4.55766E-07-2.68128E-06 3.78098E+06-7.29226E-07 8.60958E+07
 -1       122-2.54930E+07 6.72167E+06-1.04741E+08 1.89303E+05 1.03190E+07 5.21723E+07
 -1       123 1.06897E-05 9.56841E-06 1.93119E-05 2.14615E+06-2.13273E-06 3.14907E+08
 -1       124 9.78851E+06-3.26542E+06 4.50567E+07 1.88644E+06-6.38386E+07 3.22802E+08
 -1       125 2.87797E-05 2.23662E-05 3.88483E-05 2.86149E+06 2.25380E-07 5.33764E+08
 -1       126-9.78851E+06 3.26542E+06-4.50567E+07 1.88644E+06 6.38386E+07 3.22802E+08
 -1       127 1.18352E-05 5.15999E-06 2.54908E-05-5.17094E+05 1.14366E-06 5.15464E+08
 -1       128-1.13916E+07 9.17319E+05-3.51490E+07 2.59500E+06-6.41335E+07 2.87648E+08
 -1       129-1.10483E-05-1.68523E-05 9.87016E-06 3.69424E+06-2.65520E-06 4.71766E+08
 -1       130 1.13916E+07-9.17319E+05 3.51490E+07 2.59500E+06 6.41335E+07 2.87648E+08
 -1       131-8.56072E-06-1.04513E-05 2.06381E-06-2.33829E+06-6.66827E-07 2.28441E+08
 -1       132 9.72301E-07 1.70805E-06 3.31551E-06 1.93190E+07 4.14372E+08-1.05612E-06
 -1       133 2.15954E+07 1.53679E+07 9.53136E+07-4.16981E+06 2.66474E+08-1.64290E+07
 -1       134 3.68804E-07 2.91737E-06-2.23890E-06-1.10315E+07 4.55081E+08 1.76951E-07
 -1       135-2.15954E+07-1.53679E+07-9.53136E+07-4.16981E+06 2.66474E+08 1.64290E+07
 -1       136 7.97212E-07 4.33344E-06-2.07871E-06-2.47947E+07 1.29713E+08-6.26780E-07
 -1       137 1.12155E+07-1.45512E+07 1.56231E+08-5.78905E+06-1.38432E+08-1.88008E+06
 -1       138 5.49131E-07 6.15232E-06-1.55717E-06-1.39249E+07-2.33428E+08-9.04314E-07
 -1       139-1.12155E+07 1.45512E+07-1.56231E+08-5.78905E+06-1.38432E+08 1.88008E+06
 -1       140-1.50222E-06 3.69409E-06 3.50922E-06-9.93502E+06-4.75350E+08 5.81145E-07
 -1       141 5.47827E+06-1.15241E+06 4.19400E+07-2.66929E+06-4.30664E+08-2.75227E+07
 -1       142-6.72555E-06-2.05217E-06 7.09202E-06-6.20875E+06-6.97971E+08 1.86265E-08
 -1       143-5.47827E+06 1.15241E+06-4.19400E+07-2.66929E+06-4.30664E+08 2.75227E+07
 -1       144 1.55112E-05 6.46804E-06 1.03042E-05 3.47772E+06-6.31005E+08-5.66244E-07
 -1       145-9.18061E+06 7.50803E+06-1.07104E+08 5.35043E+06-3.33892E+08-1.93725E+07
 -1       146 3.67528E-05 1.43010E-05 1.40592E-05 1.28693E+07-5.42325E+08 3.94881E-07
 -1       147 9.18061E+06-7.50803E+06 1.07104E+08 5.35043E+06-3.33892E+08 1.93725E+07
 -1       148 1.43461E-05 1.39810E-05 2.33948E-06 1.72283E+07-2.22365E+08-2.03028E-07
 -1       149-1.30228E+07 1.19049E+07-1.59855E+08 7.26386E+06 6.53372E+07 3.87332E+06
 -1       150-1.04634E-05 1.28308E-05-5.61774E-06 1.79301E+07 1.06127E+08-2.00933E-06
 -1       151 1.30228E+07-1.19049E+07 1.59855E+08 7.26386E+06 6.53372E+07-3.87332E+06
 -1       152-9.09995E-06 4.15044E-06-3.93391E-06 1.52488E+07 3.90515E+08 3.05474E-07
 -1       153-4.84698E+06 6.22524E+06-6.75723E+07 5.75007E+06 4.07061E+08 2.25221E+07
 -1       154-4.25288E-06-1.63913E-06-1.64285E-06 1.05888E+07 6.62216E+08 5.47618E-07
 -1       155 4.84698E+06-6.22524E+06 6.75723E+07 5.75007E+06 4.07061E+08-2.25221E+07
 -1       156-1.07847E-05-2.50433E-06-1.63261E-06-3.49183E+06 6.52768E+08 3.20375E-07
 -1       157 5.83156E+06-3.22703E+06 6.06683E+07-3.69174E+04 3.98203E+08 2.20625E+07
 -1       158-1.60057E-05-3.12924E-07-3.24100E-06-1.56960E+06 6.46428E+08 2.51457E-06
 -1       159-5.83156E+06 3.22703E+06-6.06683E+07-3.69174E+04 3.98203E+08-2.20625E+07
 -1       160-4.14066E-06-7.30250E-06-6.15045E-06-1.49072E+07 3.76438E+08 9.12696E-07
 -1       161 1.01514E-06 1.46963E-06 6.20633E-06-7.02127E+06-6.27898E-06-4.34891E+08
 -1       162-1.29164E+07-1.28100E+07-7.88179E+07-2.67436E+05 2.63804E+07-2.39738E+08
 -1       163-2.71108E-06-4.95836E-06-1.26399E-05-3.22675E+06-1.06730E-06-4.55042E+08
 -1       164 1.29164E+07 1.28100E+07 7.88179E+07-2.67436E+05-2.63804E+07-2.39738E+08
 -1       165 4.84101E-06-2.30409E-06-1.53035E-05 2.35732E+06 1.16415E-07-1.30027E+08
 -1       166-3.21137E+07 5.62758E+06-1.00018E+08-1.34127E+05-1.68129E+07 1.10895E+08
 -1       167 1.20122E-05 8.30623E-07-1.46148E-05-2.61508E+06 1.27498E-06 1.92509E+08
 -1       168 3.21137E+07-5.62758E+06 1.00018E+08-1.34127E+05 1.68129E+07 1.10895E+08
 -1       169 5.45755E-06 7.45337E-06 1.23493E-06-3.02518E+06 1.80677E-06 3.87081E+08
 -1       170-6.39707E+06 1.42044E+06-2.80341E+07-5.73240E+04-6.90140E+07 3.43363E+08
 -1       171-3.28943E-06 1.09565E-05 1.15223E-05-9.84824E+05 2.79397E-06 5.62204E+08
 -1       172 6.39707E+06-1.42044E+06 2.80341E+07-5.73240E+04 6.90140E+07 3.43363E+08
 -1       173-7.52416E-06 9.01055E-07 1.66418E-05 9.73770E+05 3.32296E-06 5.09439E+08
 -1       174 1.61725E+07-4.80775E+06 7.01619E+07 1.93550E+05-5.27153E+07 2.66422E+08
 -1       175-7.51391E-06-5.62426E-06 2.21618E-05 2.55552E+06 6.15604E-07 4.39783E+08
 -1       176-1.61725E+07 4.80775E+06-7.01619E+07 1.93550E+05 5.27153E+07 2.66422E+08
 -1       177-1.08648E-05 2.20072E-06 7.34255E-06 2.30538E+06-1.45705E-06 1.80133E+08
 -1       178 2.54930E+07-6.72167E+06 1.04741E+08 1.89303E+05 1.03190E+07-5.21723E+07
 -1       179-1.17943E-05 1.04372E-05-3.20189E-06 3.78098E+06-3.19048E-06-8.60958E+07
 -1       180-2.54930E+07 6.72167E+06-1.04741E+08 1.89303E+05-1.03190E+07-5.21723E+07
 -1       181-8.50484E-06-1.53808E-06-1.85557E-05 2.14615E+06-2.83867E-06-3.14907E+08
 -1       182 9.78851E+06-3.26542E+06 4.50567E+07 1.88644E+06 6.38386E+07-3.22802E+08
 -1       183-6.70273E-06-1.35526E-05-3.41698E-05 2.86149E+06-7.47852E-07-5.33764E+08
 -1       184-9.78851E+06 3.26542E+06-4.50567E+07 1.88644E+06-6.38386E+07-3.22802E+08
 -1       185 1.77510E-06-8.15513E-06-2.40174E-05-5.17094E+05-7.63685E-07-5.15464E+08
 -1       186-1.13916E+07 9.17319E+05-3.51490E+07 2.59500E+06 6.41335E+07-2.87648E+08
 -1       187 5.84219E-06-8.02567E-06-2.25455E-05 3.69424E+06-2.31992E-06-4.71766E+08
 -1       188 1.13916E+07-9.17319E+05 3.51490E+07 2.59500E+06-6.41335E+07-2.87648E+08
 -1       189-3.35276E-06-2.75010E-05-1.92635E-05-2.33829E+06-2.19326E-06-2.28441E+08
 -1       190-7.84174E-07-1.30385E-06 1.31130E-06 1.93190E+07-4.14372E+08-4.32134E-07
 -1       191 2.15954E+07 1.53679E+07 9.53136E+07-4.16981E+06-2.66474E+08 1.64290E+07
 -1       192-5.12227E-08-4.47035E-07 8.05780E-06-1.10315E+07-4.55081E+08 4.84288E-08
 -1       193-2.15954E+07-1.53679E+07-9.53136E+07-4.16981E+06-2.66474E+08-1.64290E+07
 -1       194 2.62260E-06-6.81728E-07 6.16908E-06-2.47947E+07-1.29713E+08-3.83705E-07
 -1       195 1.12155E+07-1.45512E+07 1.56231E+08-5.78905E+06 1.38432E+08 1.88008E+06
 -1       196 5.21343E-06-1.27684E-06 3.62471E-06-1.39249E+07 2.33428E+08-3.31551E-07
 -1       197-1.12155E+07 1.45512E+07-1.56231E+08-5.78905E+06 1.38432E+08-1.88008E+06
 -1       198-1.74809E-06-2.66451E-06-3.78117E-06-9.93502E+06 4.75350E+08-4.69387E-07
 -1       199 5.47827E+06-1.15241E+06 4.19400E+07-2.66929E+06 4.30664E+08 2.75227E+07
 -1       200-8.10996E-06-4.14951E-06-1.27535E-05-6.20875E+06 6.97971E+08-6.40750E-07
 -1       201-5.47827E+06 1.15241E+06-4.19400E+07-2.66929E+06 4.30664E+08-2.75227E+07
 -1       202 2.04053E-06-4.15882E-06-8.71159E-06 3.47772E+06 6.31005E+08 7.33882E-07
 -1       203-9.18061E+06 7.50803E+06-1.07104E+08 5.35043E+06 3.33892E+08 1.93725E+07
 -1       204 1.30348E-05-3.85643E-06-1.82912E-06 1.28693E+07 5.42325E+08-1.56648E-06
 -1       205 9.18061E+06-7.50803E+06 1.07104E+08 5.35043E+06 3.33892E+08-1.93725E+07
 -1       206 1.45957E-05 9.71183E-06 8.40425E-06 1.72283E+07 2.22365E+08-6.98492E-07
 -1       207-1.30228E+07 1.19049E+07-1.59855E+08 7.26386E+06-6.53372E+07-3.87332E+06
 -1       208 1.73748E-05 2.52062E-05 2.00458E-05 1.79301E+07-1.06127E+08 1.02026E-06
 -1       209 1.30228E+07-1.19049E+07 1.59855E+08 7.26386E+06-6.53372E+07 3.87332E+06
 -1       210 1.55512E-05 1.41799E-05 9.57400E-06 1.52488E+07-3.90515E+08 4.47035E-07
 -1       211-4.84698E+06 6.22524E+06-6.75723E+07 5.75007E+06-4.07061E+08-2.25221E+07
 -1       212 9.95444E-06-8.38190E-08-2.22865E-06 1.05888E+07-6.62216E+08 1.53482E-06
 -1       213 4.84698E+06-6.22524E+06 6.75723E+07 5.75007E+06-4.07061E+08 2.25221E+07
 -1       214 7.24988E-06-6.81262E-06-2.17464E-06-3.49183E+06-6.52768E+08-6.40750E-07
 -1       215 5.83156E+06-3.22703E+06 6.06683E+07-3.69174E+04-3.98203E+08-2.20625E+07
 -1       216 1.00834E-05-8.17981E-06 3.79980E-07-1.56960E+06-6.46428E+08-1.76020E-06
 -1       217-5.83156E+06 3.22703E+06-6.06683E+07-3.69174E+04-3.98203E+08 2.20625E+07
 -1       218 5.96140E-06-6.34883E-06-5.62519E-07-1.49072E+07-3.76438E+08-1.09151E-06
 -1       219 4.52274E-08-2.62691E-07 2.16917E-06 1.13708E+07-1.04676E-05-6.05360E-07
 -1       220-4.88479E-07 1.19116E-06 8.74139E-06-1.57539E+07-5.71553E-06 1.99358E+08
 -1       221 1.00909E-06-1.45519E-07 6.02938E-06-1.96562E+07-2.14638E+08-5.47618E-07
 -1       222-4.58531E-07-1.01683E-06 3.08180E-06-2.82810E+07-1.05388E-05-1.27871E-06
 -1       223-1.30897E-06 3.63681E-07-3.91155E-08-1.96562E+07 2.14638E+08-6.22123E-07
 -1       224-3.20841E-07-2.11038E-06-3.99537E-06-1.57539E+07-5.63916E-06-1.99358E+08
 -1       225-5.41564E-07 5.21308E-07 7.46688E-07-6.45892E+07-2.53459E-06 1.34809E-06
 -1       226-2.26311E-06-3.65777E-07 8.10809E-06-4.29604E+07 3.25963E-06-8.34568E+07
 -1       227 7.54371E-07 1.91852E-07 1.03936E-06-4.86153E+07 1.11809E+08 1.17626E-06
 -1       228-5.39003E-07 2.01771E-06-4.80097E-07-8.33058E+07 5.00097E-06 3.07290E-06
 -1       229 1.58744E-06 4.26453E-06-4.88013E-07-4.86153E+07-1.11809E+08 1.27777E-06
 -1       230 5.23869E-06 1.05100E-06-7.16327E-06-4.29604E+07 3.05614E-06 8.34568E+07
 -1       231 3.14415E-06-2.99374E-06 1.44355E-08-5.35164E+07 7.55489E-06 1.55903E-06
 -1       232 7.37829E-06 1.71497E-06-4.32180E-06-1.13745E+07 4.63985E-06-2.47115E+08
 -1       233-7.97212E-07-6.37490E-06-6.93230E-06-1.39865E+07 3.35738E+08-2.08616E-07
 -1       234 5.88229E-06-8.40053E-06-1.46555E-06-2.17642E+07 9.51951E-06-1.63913E-07
 -1       235-7.38073E-07-5.12647E-06 2.63518E-06-1.39865E+07-3.35738E+08-2.71946E-07
 -1       236-1.19791E-07-2.15892E-06 3.34298E-06-1.13745E+07 5.61774E-06 2.47115E+08
 -1       237-1.05895E-05-7.52171E-06-6.84359E-06 1.77709E+07 3.72715E-06-9.38773E-07
 -1       238-8.29203E-06-2.34228E-06-1.65151E-05 2.99026E+07-2.07871E-06-1.93233E+08
 -1       239-1.46218E-06-1.73750E-06-4.23566E-06 3.50595E+07 2.60702E+08-8.23289E-07
 -1       240-2.67115E-05-5.22635E-06-1.15315E-05 5.72496E+07-3.36720E-06-1.26008E-06
 -1       241-3.55300E-07 1.73331E-06-1.18092E-06 3.50595E+07-2.60702E+08-1.02073E-06
 -1       242-1.64506E-05-4.76325E-06 5.12227E-06 2.99026E+07-1.06171E-06 1.93233E+08
 -1       243-1.13943E-05-4.41400E-06-6.71973E-06 7.29168E+07-7.85338E-06-8.48435E-07
 -1       244 1.20699E-06-5.43427E-07-2.11596E-06 4.50427E+07-5.57257E-06 3.78925E+07
 -1       245 4.54346E-06 7.11624E-06 5.74905E-06 5.21173E+07-5.09998E+07 7.91624E-08
 -1       246 9.14093E-07-6.36280E-06-4.33042E-06 8.63044E+07-1.05142E-05 1.02865E-06
 -1       247-1.73692E-07 5.53904E-06-2.86382E-06 5.21173E+07 5.09998E+07 4.54951E-07
 -1       248-7.48597E-06-3.73228E-07-5.15580E-06 4.50427E+07-6.90157E-06-3.78925E+07
 -1       249-9.16421E-07-5.01983E-06-2.09920E-06 6.13721E+07-7.98004E-06 6.22123E-07
 -1       250 1.16939E-05 8.17259E-06 1.79980E-05 1.92460E+07-2.22400E-06 2.34085E+08
 -1       251-4.23752E-07-2.25054E-06-2.49920E-06 2.31097E+07-3.18642E+08 2.11783E-06
 -1       252-2.42272E-06-1.67242E-06 6.31495E-07 3.56306E+07-3.39281E-06 9.61125E-07
 -1       253 8.51694E-07-2.83122E-07 1.19489E-06 2.31097E+07 3.18642E+08-1.17347E-07
 -1       254-3.07802E-06-5.43834E-06-1.50267E-05 1.92460E+07-1.42958E-06-2.34085E+08
 -1       255-1.09780E-06 5.08991E-06-4.90341E-07 4.92101E+06 1.82725E-06 1.93343E-06
 -1       256-4.07442E-06-2.24495E-06 5.12321E-06-3.35650E+06 1.03656E-06 2.06601E+08
 -1       257 2.88850E-06-4.38187E-07-1.27032E-06-5.98842E+06-3.11353E+08 5.58794E-08
 -1       258 2.56579E-06 1.14475E-05 3.31725E-07-1.04072E+07 5.89201E-06 1.26101E-06
 -1       259-3.28384E-06 7.64010E-06 1.69501E-07-5.98842E+06 3.11353E+08 1.58325E-06
 -1       260 4.03728E-06 1.25356E-06-1.11293E-05-3.35650E+06 2.36928E-06-2.06601E+08
 -1       261 2.45916E-06 1.79908E-05 5.89411E-06-7.86187E+07 5.73881E-06-8.92207E-07
 -3
    1PSTEP                        25           1           1          
    1PGM                1.000000E+00                                  
    1PGK                9.372576E+06                                  
    1PHID                         -1                                  
    1PSUBC                         0                                  
    1PMODE                        13                                  
  100CL  113 4.87247E+02         261                     2   13MODAL      1
 -4  DISP        4    1
 -5  D1          1    2    1    0
 -5  D2          1    2    2    0
 -5  D3          1    2    3    0
 -5  ALL         1    2    0    0    1ALL
 -1         1 0.00000E+00 0.00000E+00 0.00000E+00
 -1         2 0.00000E+00 0.00000E+00 0.00000E+00
 -1         3 0.00000E+00 0.00000E+00 0.00000E+00
 -1         4 0.00000E+00 0.00000E+00 0.00000E+00
 -1         5 2.91524E-07 1.82371E-06-4.47613E-03
 -1         6-2.91524E-07 1.82371E-06-4.47613E-03
 -1         7-2.91524E-07-1.82371E-06-4.47613E-03
 -1         8 2.91524E-07-1.82371E-06-4.47613E-03
 -1         9 0.00000E+00 0.00000E+00 0.00000E+00
 -1        10 0.00000E+00 0.00000E+00 0.00000E+00
 -1        11 0.00000E+00 0.00000E+00 0.00000E+00
 -1        12 0.00000E+00 0.00000E+00 0.00000E+00
 -1        13 0.00000E+00 0.00000E+00 0.00000E+00
 -1        14 0.00000E+00 0.00000E+00 0.00000E+00
 -1        15 0.00000E+00 0.00000E+00 0.00000E+00
 -1        16 0.00000E+00 0.00000E+00 0.00000E+00
 -1        17 0.00000E+00 0.00000E+00 0.00000E+00
 -1        18 0.00000E+00 0.00000E+00 0.00000E+00
 -1        19 0.00000E+00 0.00000E+00 0.00000E+00
 -1        20 0.00000E+00 0.00000E+00 0.00000E+00
 -1        21 1.30613E-07 1.84089E-06-4.52283E-03
 -1        22 5.20417E-18 1.75241E-06-4.53807E-03
 -1        23-1.30613E-07 1.84089E-06-4.52283E-03
 -1        24-1.03876E-07 1.03651E-06-4.58875E-03
 -1        25 2.81776E-08-3.51282E-17-4.62630E-03
 -1        26-1.03876E-07-1.03651E-06-4.58875E-03
 -1        27-1.30613E-07-1.84089E-06-4.52283E-03
 -1        28-3.46945E-18-1.75241E-06-4.53807E-03
 -1        29 1.30613E-07-1.84089E-06-4.52283E-03
 -1        30 1.03876E-07-1.03651E-06-4.58875E-03
 -1        31-2.81776E-08 2.05998E-17-4.62630E-03
 -1        32 1.03876E-07 1.03651E-06-4.58875E-03
 -1        33-4.58046E-04 5.68960E-04 1.28376E-03
 -1        34-2.62073E-04 5.07085E-04 2.41830E-03
 -1        35-2.67821E-04 4.36266E-04 3.40919E-03
 -1        36-1.54156E-04 2.54496E-04 4.09314E-03
 -1        37-4.96064E-05 7.56524E-05 4.44594E-03
 -1        38 7.45098E-05-1.17343E-04 4.40692E-03
 -1        39 1.88318E-04-2.95406E-04 3.98220E-03
 -1        40 2.87445E-04-4.51334E-04 3.20982E-03
 -1        41 3.60688E-04-5.67323E-04 2.15908E-03
 -1        42 4.02994E-04-6.33492E-04 9.19952E-04
 -1        43 4.10167E-04-6.44918E-04-3.99532E-04
 -1        44 3.81532E-04-5.99596E-04-1.68423E-03
 -1        45 3.19726E-04-5.02742E-04-2.82212E-03
 -1        46 2.29824E-04-3.61430E-04-3.71395E-03
 -1        47 1.20178E-04-1.89162E-04-4.28176E-03
 -1        48-1.20178E-04-1.89162E-04-4.28176E-03
 -1        49-2.29824E-04-3.61430E-04-3.71395E-03
 -1        50-3.19726E-04-5.02742E-04-2.82212E-03
 -1        51-3.81532E-04-5.99596E-04-1.68423E-03
 -1        52-4.10167E-04-6.44918E-04-3.99532E-04
 -1        53-4.02994E-04-6.33492E-04 9.19952E-04
 -1        54-3.60688E-04-5.67323E-04 2.15908E-03
 -1        55-2.87445E-04-4.51334E-04 3.20982E-03
 -1        56-1.88318E-04-2.95406E-04 3.98220E-03
 -1        57-7.45098E-05-1.17343E-04 4.40692E-03
 -1        58 4.96064E-05 7.56524E-05 4.44594E-03
 -1        59 1.54156E-04 2.54496E-04 4.09314E-03
 -1        60 2.67821E-04 4.36266E-04 3.40919E-03
 -1        61 2.62073E-04 5.07085E-04 2.41830E-03
 -1        62 4.58046E-04 5.68960E-04 1.28376E-03
 -1        63-4.58046E-04-5.68960E-04 1.28376E-03
 -1        64-2.62073E-04-5.07085E-04 2.41830E-03
 -1        65-2.67821E-04-4.36266E-04 3.40919E-03
 -1        66-1.54156E-04-2.54496E-04 4.09314E-03
 -1        67-4.96064E-05-7.56524E-05 4.44594E-03
 -1        68 7.45098E-05 1.17343E-04 4.40692E-03
 -1        69 1.88318E-04 2.95406E-04 3.98220E-03
 -1        70 2.87445E-04 4.51334E-04 3.20982E-03
 -1        71 3.60688E-04 5.67323E-04 2.15908E-03
 -1        72 4.02994E-04 6.33492E-04 9.19952E-04
 -1        73 4.10167E-04 6.44918E-04-3.99532E-04
 -1        74 3.81532E-04 5.99596E-04-1.68423E-03
 -1        75 3.19726E-04 5.02742E-04-2.82212E-03
 -1        76 2.29824E-04 3.61430E-04-3.71395E-03
 -1        77 1.20178E-04 1.89162E-04-4.28176E-03
 -1        78 4.58046E-04-5.68960E-04 1.28376E-03
 -1        79 2.62073E-04-5.07085E-04 2.41830E-03
 -1        80 2.67821E-04-4.36266E-04 3.40919E-03
 -1        81 1.54156E-04-2.54496E-04 4.09314E-03
 -1        82 4.96064E-05-7.56524E-05 4.44594E-03
 -1        83-7.45098E-05 1.17343E-04 4.40692E-03
 -1        84-1.88318E-04 2.95406E-04 3.98220E-03
 -1        85-2.87445E-04 4.51334E-04 3.20982E-03
 -1        86-3.60688E-04 5.67323E-04 2.15908E-03
 -1        87-4.02994E-04 6.33492E-04 9.19952E-04
 -1        88-4.10167E-04 6.44918E-04-3.99532E-04
 -1        89-3.81532E-04 5.99596E-04-1.68423E-03
 -1        90-3.19726E-04 5.02742E-04-2.82212E-03
 -1        91-2.29824E-04 3.61430E-04-3.71395E-03
 -1        92-1.20178E-04 1.89162E-04-4.28176E-03
 -1        93 0.00000E+00 0.00000E+00 0.00000E+00
 -1        94 0.00000E+00 0.00000E+00 0.00000E+00
 -1        95 0.00000E+00 0.00000E+00 0.00000E+00
 -1        96 0.00000E+00 0.00000E+00 0.00000E+00
 -1        97 0.00000E+00 0.00000E+00 0.00000E+00
 -1        98-2.68882E-17 1.02713E-06-4.65052E-03
 -1        99 8.22858E-09 6.59195E-17-4.67275E-03
 -1       100 9.54098E-18 1.64799E-17-4.68796E-03
 -1       101-8.22858E-09 9.10730E-18-4.67275E-03
 -1       102-6.15827E-17-1.02713E-06-4.65052E-03
 -1       103-3.17671E-17 5.70970E-04 1.23310E-03
 -1       104 1.35517E-04 5.06126E-04 2.45882E-03
 -1       105-5.72459E-17 5.11349E-04 2.48715E-03
 -1       106-1.35517E-04 5.06126E-04 2.45882E-03
 -1       107-6.24500E-17 4.25763E-04 3.44950E-03
 -1       108 7.69208E-05 2.59353E-04 4.13921E-03
 -1       109-4.51028E-17 2.63413E-04 4.15822E-03
 -1       110-7.69208E-05 2.59353E-04 4.13921E-03
 -1       111 1.19262E-18 7.42089E-05 4.50527E-03
 -1       112-3.74685E-05-1.15944E-04 4.45332E-03
 -1       113 1.30104E-18-1.14387E-04 4.46855E-03
 -1       114 3.74685E-05-1.15944E-04 4.45332E-03
 -1       115 3.68629E-17-2.96308E-04 4.03709E-03
 -1       116-1.45713E-04-4.51410E-04 3.24333E-03
 -1       117-2.60209E-18-4.50841E-04 3.25446E-03
 -1       118 1.45713E-04-4.51410E-04 3.24333E-03
 -1       119-2.60209E-18-5.67705E-04 2.18875E-03
 -1       120-2.04139E-04-6.33938E-04 9.29548E-04
 -1       121-8.67362E-18-6.33587E-04 9.32654E-04
 -1       122 2.04139E-04-6.33938E-04 9.29548E-04
 -1       123 2.16840E-18-6.45290E-04-4.05042E-04
 -1       124-1.93297E-04-6.00130E-04-1.70174E-03
 -1       125 4.33681E-18-5.99858E-04-1.70742E-03
 -1       126 1.93297E-04-6.00130E-04-1.70174E-03
 -1       127 4.33681E-18-5.03002E-04-2.86105E-03
 -1       128-1.16433E-04-3.61722E-04-3.75256E-03
 -1       129-6.72205E-18-3.61570E-04-3.76514E-03
 -1       130 1.16433E-04-3.61722E-04-3.75256E-03
 -1       131-6.24500E-17-1.89153E-04-4.34086E-03
 -1       132-4.55654E-04-2.81893E-18 1.19520E-03
 -1       133-2.86563E-04 2.62684E-04 2.44119E-03
 -1       134-3.07722E-04-3.46945E-18 2.47146E-03
 -1       135-2.86563E-04-2.62684E-04 2.44119E-03
 -1       136-2.67851E-04-5.85469E-18 3.50765E-03
 -1       137-1.58188E-04 1.31807E-04 4.20246E-03
 -1       138-1.61814E-04-3.63208E-18 4.23055E-03
 -1       139-1.58188E-04-1.31807E-04 4.20246E-03
 -1       140-4.66977E-05-1.20346E-17 4.59351E-03
 -1       141 7.33471E-05-6.05931E-05 4.51498E-03
 -1       142 7.18204E-05-4.66207E-18 4.55419E-03
 -1       143 7.33471E-05 6.05931E-05 4.51498E-03
 -1       144 1.86975E-04 1.82146E-17 4.11423E-03
 -1       145 2.85879E-04-2.32494E-04 3.29042E-03
 -1       146 2.84857E-04 1.69136E-17 3.31673E-03
 -1       147 2.85879E-04 2.32494E-04 3.29042E-03
 -1       148 3.58279E-04 2.55872E-17 2.23090E-03
 -1       149 4.01268E-04-3.26409E-04 9.42724E-04
 -1       150 3.99953E-04 3.60633E-17 9.50602E-04
 -1       151 4.01268E-04 3.26409E-04 9.42724E-04
 -1       152 4.07230E-04 1.30104E-18-4.12856E-04
 -1       153 3.79882E-04-3.08911E-04-1.72613E-03
 -1       154 3.78743E-04 9.97466E-18-1.74020E-03
 -1       155 3.79882E-04 3.08911E-04-1.72613E-03
 -1       156 3.17412E-04-1.06794E-17-2.91597E-03
 -1       157 2.28912E-04-1.86294E-04-3.80644E-03
 -1       158 2.28228E-04-2.59124E-17-3.83763E-03
 -1       159 2.28912E-04 1.86294E-04-3.80644E-03
 -1       160 1.19592E-04-2.77556E-17-4.42503E-03
 -1       161-6.50521E-19-5.70970E-04 1.23310E-03
 -1       162-1.35517E-04-5.06126E-04 2.45882E-03
 -1       163-1.21431E-17-5.11349E-04 2.48715E-03
 -1       164 1.35517E-04-5.06126E-04 2.45882E-03
 -1       165-2.94903E-17-4.25763E-04 3.44950E-03
 -1       166-7.69208E-05-2.59353E-04 4.13921E-03
 -1       167-2.80808E-17-2.63413E-04 4.15822E-03
 -1       168 7.69208E-05-2.59353E-04 4.13921E-03
 -1       169 3.09269E-17-7.42089E-05 4.50527E-03
 -1       170 3.74685E-05 1.15944E-04 4.45332E-03
 -1       171 3.56703E-17 1.14387E-04 4.46855E-03
 -1       172-3.74685E-05 1.15944E-04 4.45332E-03
 -1       173 2.25514E-17 2.96308E-04 4.03709E-03
 -1       174 1.45713E-04 4.51410E-04 3.24333E-03
 -1       175-2.94903E-17 4.50841E-04 3.25446E-03
 -1       176-1.45713E-04 4.51410E-04 3.24333E-03
 -1       177-7.78457E-17 5.67705E-04 2.18875E-03
 -1       178 2.04139E-04 6.33938E-04 9.29548E-04
 -1       179-3.66460E-17 6.33587E-04 9.32654E-04
 -1       180-2.04139E-04 6.33938E-04 9.29548E-04
 -1       181-2.08167E-17 6.45290E-04-4.05042E-04
 -1       182 1.93297E-04 6.00130E-04-1.70174E-03
 -1       183 5.20417E-18 5.99858E-04-1.70742E-03
 -1       184-1.93297E-04 6.00130E-04-1.70174E-03
 -1       185 2.25514E-17 5.03002E-04-2.86105E-03
 -1       186 1.16433E-04 3.61722E-04-3.75256E-03
 -1       187-9.43256E-18 3.61570E-04-3.76514E-03
 -1       188-1.16433E-04 3.61722E-04-3.75256E-03
 -1       189 2.75387E-17 1.89153E-04-4.34086E-03
 -1       190 4.55654E-04 1.17094E-17 1.19520E-03
 -1       191 2.86563E-04-2.62684E-04 2.44119E-03
 -1       192 3.07722E-04 1.71304E-17 2.47146E-03
 -1       193 2.86563E-04 2.62684E-04 2.44119E-03
 -1       194 2.67851E-04 2.90566E-17 3.50765E-03
 -1       195 1.58188E-04-1.31807E-04 4.20246E-03
 -1       196 1.61814E-04 1.45283E-17 4.23055E-03
 -1       197 1.58188E-04 1.31807E-04 4.20246E-03
 -1       198 4.66977E-05 3.90313E-18 4.59351E-03
 -1       199-7.33471E-05 6.05931E-05 4.51498E-03
 -1       200-7.18204E-05-1.69136E-17 4.55419E-03
 -1       201-7.33471E-05-6.05931E-05 4.51498E-03
 -1       202-1.86975E-04-1.13841E-17 4.11423E-03
 -1       203-2.85879E-04 2.32494E-04 3.29042E-03
 -1       204-2.84857E-04 6.50521E-18 3.31673E-03
 -1       205-2.85879E-04-2.32494E-04 3.29042E-03
 -1       206-3.58279E-04 1.89735E-17 2.23090E-03
 -1       207-4.01268E-04 3.26409E-04 9.42724E-04
 -1       208-3.99953E-04 9.54098E-18 9.50602E-04
 -1       209-4.01268E-04-3.26409E-04 9.42724E-04
 -1       210-4.07230E-04 6.07153E-18-4.12856E-04
 -1       211-3.79882E-04 3.08911E-04-1.72613E-03
 -1       212-3.78743E-04-1.43115E-17-1.74020E-03
 -1       213-3.79882E-04-3.08911E-04-1.72613E-03
 -1       214-3.17412E-04 7.58942E-19-2.91597E-03
 -1       215-2.28912E-04 1.86294E-04-3.80644E-03
 -1       216-2.28228E-04 3.03577E-18-3.83763E-03
 -1       217-2.28912E-04-1.86294E-04-3.80644E-03
 -1       218-1.19592E-04-1.82146E-17-4.42503E-03
 -1       219-1.66967E-17 7.58942E-18 1.13804E-03
 -1       220-5.13912E-17 2.61783E-04 2.51220E-03
 -1       221 1.57892E-04 1.79978E-17 2.51232E-03
 -1       222-3.04661E-17 1.00831E-17 2.54209E-03
 -1       223-1.57892E-04 2.60209E-18 2.51232E-03
 -1       224-2.34188E-17-2.61783E-04 2.51220E-03
 -1       225-4.07660E-17 5.63785E-18 3.55190E-03
 -1       226-2.20906E-17 1.36594E-04 4.26441E-03
 -1       227 8.11532E-05 8.64651E-18 4.27587E-03
 -1       228-3.94650E-17 3.25261E-19 4.29189E-03
 -1       229-8.11532E-05-3.68629E-18 4.27587E-03
 -1       230-9.08019E-18-1.36594E-04 4.26441E-03
 -1       231-6.50521E-18-8.34836E-18 4.65457E-03
 -1       232 1.48536E-17-5.93139E-05 4.57612E-03
 -1       233-3.62348E-05-1.66967E-17 4.59913E-03
 -1       234 3.51282E-17 3.30682E-18 4.61387E-03
 -1       235 3.62348E-05 3.30682E-18 4.59913E-03
 -1       236 2.16840E-17 5.93139E-05 4.57612E-03
 -1       237 1.30104E-18 4.03188E-18 4.16927E-03
 -1       238-1.99493E-17-2.32561E-04 3.33463E-03
 -1       239-1.44374E-04 1.75641E-17 3.35000E-03
 -1       240 3.68629E-18 1.41658E-17 3.36076E-03
 -1       241 1.44374E-04 1.30104E-17 3.35000E-03
 -1       242-4.22839E-18 2.32561E-04 3.33463E-03
 -1       243-1.92988E-17 2.26598E-17 2.26062E-03
 -1       244-1.02254E-17-3.26961E-04 9.55389E-04
 -1       245-2.02622E-04-3.07913E-17 9.60048E-04
 -1       246-2.13317E-17 2.33646E-17 9.63133E-04
 -1       247 2.02622E-04 4.85723E-17 9.60048E-04
 -1       248-2.49366E-17 3.26961E-04 9.55389E-04
 -1       249 5.22450E-18 1.01915E-17-4.18335E-04
 -1       250 1.42030E-17-3.09505E-04-1.74932E-03
 -1       251-1.91890E-04-1.51788E-17-1.75765E-03
 -1       252 8.72783E-18-2.29851E-17-1.76337E-03
 -1       253 1.91890E-04 4.33681E-18-1.75765E-03
 -1       254-2.92735E-18 3.09505E-04-1.74932E-03
 -1       255 1.45283E-17 1.25767E-17-2.95478E-03
 -1       256-9.75782E-19-1.86640E-04-3.85758E-03
 -1       257-1.15641E-04-2.47198E-17-3.87604E-03
 -1       258 6.72205E-18 3.25261E-18-3.88865E-03
 -1       259 1.15641E-04-2.20093E-17-3.87604E-03
 -1       260 2.25514E-17 1.86640E-04-3.85758E-03
 -1       261 1.84314E-17-3.50333E-18-4.48394E-03
 -3
    1PSTEP                        26           1           1          
    1PGM                1.000000E+00                                  
    1PGK                9.372576E+06                                  
    1PHID                         -1                                  
    1PSUBC                         0                                  
    1PMODE                        13                                  
  100CL  113 4.87247E+02         261                     2   13MODAL      1
 -4  STRESS      6    1
 -5  SXX         1    4    1    1
 -5  SYY         1    4    2    2
 -5  SZZ         1    4    3    3
 -5  SXY         1    4    1    2
 -5  SYZ         1    4    2    3
 -5  SZX         1    4    3    1
 -1         1 1.72110E+08 1.97251E+08 6.81638E+08-1.82361E+06 1.34918E+08 1.17984E+08
 -1         2 1.72110E+08 1.97251E+08 6.81638E+08 1.82361E+06 1.34918E+08-1.17984E+08
 -1         3 1.72110E+08 1.97251E+08 6.81638E+08-1.82361E+06-1.34918E+08-1.17984E+08
 -1         4 1.72110E+08 1.97251E+08 6.81638E+08 1.82361E+06-1.34918E+08 1.17984E+08
 -1         5 1.18698E+04 4.72774E+03-4.54347E+06-9.69169E+03-1.04288E+05-3.15834E+04
 -1         6 1.18698E+04 4.72774E+03-4.54347E+06 9.69169E+03-1.04288E+05 3.15834E+04
 -1         7 1.18698E+04 4.72774E+03-4.54347E+06-9.69169E+03 1.04288E+05 3.15834E+04
 -1         8 1.18698E+04 4.72774E+03-4.54347E+06 9.69169E+03 1.04288E+05-3.15834E+04
 -1         9 1.55723E+08 1.80873E+08 6.43393E+08-9.18411E+05 1.34724E+08 5.45311E+07
 -1        10 1.39335E+08 1.64494E+08 6.05147E+08 7.27654E-07 1.34530E+08-4.74509E-06
 -1        11 1.55723E+08 1.80873E+08 6.43393E+08 9.18411E+05 1.34724E+08-5.45311E+07
 -1        12 1.52160E+08 1.74586E+08 6.26038E+08 1.81701E+06 6.35720E+07-1.15344E+08
 -1        13 1.32211E+08 1.51921E+08 5.70437E+08-1.88709E-07-8.40519E-07-1.12704E+08
 -1        14 1.52160E+08 1.74586E+08 6.26038E+08-1.81701E+06-6.35720E+07-1.15344E+08
 -1        15 1.55723E+08 1.80873E+08 6.43393E+08-9.18411E+05-1.34724E+08-5.45311E+07
 -1        16 1.39335E+08 1.64494E+08 6.05147E+08-4.18688E-07-1.34530E+08 7.53440E-07
 -1        17 1.55723E+08 1.80873E+08 6.43393E+08 9.18411E+05-1.34724E+08 5.45311E+07
 -1        18 1.52160E+08 1.74586E+08 6.26038E+08 1.81701E+06-6.35720E+07 1.15344E+08
 -1        19 1.32211E+08 1.51921E+08 5.70437E+08 1.72295E-08 2.61981E-06 1.12704E+08
 -1        20 1.52160E+08 1.74586E+08 6.26038E+08-1.81701E+06 6.35720E+07 1.15344E+08
 -1        21 1.83350E+04 2.38126E+03-4.60443E+06-1.87505E+04-9.20846E+04-2.98085E+04
 -1        22 2.48002E+04 3.47785E+01-4.66540E+06-1.91263E-05-7.98809E+04 1.78054E-05
 -1        23 1.83350E+04 2.38126E+03-4.60443E+06 1.87505E+04-9.20846E+04 2.98085E+04
 -1        24 6.37605E+03-1.89637E+05-4.72055E+06 1.51949E+04-1.23738E+05 4.16008E+04
 -1        25 8.82293E+02-3.84001E+05-4.89764E+06-1.37748E-05-3.42028E-07 5.16182E+04
 -1        26 6.37605E+03-1.89637E+05-4.72055E+06-1.51949E+04 1.23738E+05 4.16008E+04
 -1        27 1.83350E+04 2.38126E+03-4.60443E+06-1.87505E+04 9.20846E+04 2.98085E+04
 -1        28 2.48002E+04 3.47784E+01-4.66540E+06 2.67032E-05 7.98809E+04-7.93108E-06
 -1        29 1.83350E+04 2.38126E+03-4.60443E+06 1.87505E+04 9.20846E+04-2.98085E+04
 -1        30 6.37605E+03-1.89637E+05-4.72055E+06 1.51949E+04 1.23738E+05-4.16008E+04
 -1        31 8.82293E+02-3.84001E+05-4.89764E+06 2.64860E-05 8.36038E-06-5.16182E+04
 -1        32 6.37605E+03-1.89637E+05-4.72055E+06-1.51949E+04-1.23738E+05-4.16008E+04
 -1        33 2.87829E+07 4.30942E+07 5.29721E+08-1.59487E+05 3.50615E+07-1.99323E+07
 -1        34-3.79479E+07-4.45902E+07 4.41913E+08-1.17831E+06-3.15062E+07 2.77752E+07
 -1        35 8.54527E+06 2.16322E+06 3.62161E+08 4.32094E+05-1.99818E+06-5.24342E+06
 -1        36-9.59146E+06-7.49146E+06 2.24829E+08-1.10373E+05-5.74945E+05 4.36209E+06
 -1        37 5.03863E+04 5.92293E+05 6.55049E+07-2.66343E+05 1.48242E+06-6.75268E+05
 -1        38-3.10562E+05 3.32766E+04-1.03212E+08 2.66753E+05-7.42725E+05 6.89723E+05
 -1        39 9.20544E+05 1.39536E+06-2.52323E+08-4.63510E+04 3.19796E+04-1.72581E+05
 -1        40 5.66462E+05 1.83238E+06-4.01595E+08-2.02348E+03 1.96533E+05 5.90524E+04
 -1        41 1.03963E+06 2.57284E+06-4.83638E+08-7.03839E+04 2.04454E+05-2.58908E+04
 -1        42 1.23262E+06 2.90102E+06-5.63549E+08-3.28963E+04-2.14576E+04 1.50188E+04
 -1        43 1.24737E+06 2.88980E+06-5.49888E+08-5.42323E+04-3.69551E+04-6.50564E+03
 -1        44 1.15121E+06 2.75536E+06-5.33539E+08-5.01158E+04-9.10056E+04 3.16305E+04
 -1        45 9.36818E+05 2.21430E+06-4.28616E+08-4.41015E+04-1.19129E+05 1.38203E+04
 -1        46 7.18722E+05 1.70153E+06-3.21505E+08-3.03971E+04-2.59722E+05 4.00444E+04
 -1        47 3.57011E+05 8.47894E+05-1.61034E+08-1.19054E+04-2.18524E+05 3.88463E+04
 -1        48 3.57011E+05 8.47894E+05-1.61034E+08 1.19054E+04-2.18524E+05-3.88463E+04
 -1        49 7.18722E+05 1.70153E+06-3.21505E+08 3.03971E+04-2.59722E+05-4.00444E+04
 -1        50 9.36818E+05 2.21430E+06-4.28616E+08 4.41015E+04-1.19129E+05-1.38203E+04
 -1        51 1.15121E+06 2.75536E+06-5.33539E+08 5.01158E+04-9.10056E+04-3.16305E+04
 -1        52 1.24737E+06 2.88980E+06-5.49888E+08 5.42323E+04-3.69551E+04 6.50564E+03
 -1        53 1.23262E+06 2.90102E+06-5.63549E+08 3.28963E+04-2.14576E+04-1.50188E+04
 -1        54 1.03963E+06 2.57284E+06-4.83638E+08 7.03839E+04 2.04454E+05 2.58908E+04
 -1        55 5.66462E+05 1.83238E+06-4.01595E+08 2.02348E+03 1.96533E+05-5.90524E+04
 -1        56 9.20544E+05 1.39536E+06-2.52323E+08 4.63510E+04 3.19796E+04 1.72581E+05
 -1        57-3.10562E+05 3.32766E+04-1.03212E+08-2.66753E+05-7.42725E+05-6.89723E+05
 -1        58 5.03863E+04 5.92293E+05 6.55049E+07 2.66343E+05 1.48242E+06 6.75268E+05
 -1        59-9.59146E+06-7.49146E+06 2.24829E+08 1.10373E+05-5.74945E+05-4.36209E+06
 -1        60 8.54527E+06 2.16322E+06 3.62161E+08-4.32094E+05-1.99818E+06 5.24342E+06
 -1        61-3.79479E+07-4.45902E+07 4.41913E+08 1.17831E+06-3.15062E+07-2.77752E+07
 -1        62 2.87829E+07 4.30942E+07 5.29721E+08 1.59487E+05 3.50615E+07 1.99323E+07
 -1        63 2.87829E+07 4.30942E+07 5.29721E+08 1.59487E+05-3.50615E+07-1.99323E+07
 -1        64-3.79479E+07-4.45902E+07 4.41913E+08 1.17831E+06 3.15062E+07 2.77752E+07
 -1        65 8.54527E+06 2.16322E+06 3.62161E+08-4.32094E+05 1.99818E+06-5.24342E+06
 -1        66-9.59146E+06-7.49146E+06 2.24829E+08 1.10373E+05 5.74945E+05 4.36209E+06
 -1        67 5.03863E+04 5.92293E+05 6.55049E+07 2.66343E+05-1.48242E+06-6.75268E+05
 -1        68-3.10562E+05 3.32766E+04-1.03212E+08-2.66753E+05 7.42725E+05 6.89723E+05
 -1        69 9.20544E+05 1.39536E+06-2.52323E+08 4.63510E+04-3.19796E+04-1.72581E+05
 -1        70 5.66462E+05 1.83238E+06-4.01595E+08 2.02348E+03-1.96533E+05 5.90524E+04
 -1        71 1.03963E+06 2.57284E+06-4.83638E+08 7.03839E+04-2.04454E+05-2.58908E+04
 -1        72 1.23262E+06 2.90102E+06-5.63549E+08 3.28963E+04 2.14576E+04 1.50188E+04
 -1        73 1.24737E+06 2.88980E+06-5.49888E+08 5.42323E+04 3.69551E+04-6.50564E+03
 -1        74 1.15121E+06 2.75536E+06-5.33539E+08 5.01158E+04 9.10056E+04 3.16305E+04
 -1        75 9.36818E+05 2.21430E+06-4.28616E+08 4.41015E+04 1.19129E+05 1.38203E+04
 -1        76 7.18722E+05 1.70153E+06-3.21505E+08 3.03971E+04 2.59722E+05 4.00444E+04
 -1        77 3.57011E+05 8.47894E+05-1.61034E+08 1.19054E+04 2.18524E+05 3.88463E+04
 -1        78 2.87829E+07 4.30942E+07 5.29721E+08-1.59487E+05-3.50615E+07 1.99323E+07
 -1        79-3.79479E+07-4.45902E+07 4.41913E+08-1.17831E+06 3.15062E+07-2.77752E+07
 -1        80 8.54527E+06 2.16322E+06 3.62161E+08 4.32094E+05 1.99818E+06 5.24342E+06
 -1        81-9.59146E+06-7.49146E+06 2.24829E+08-1.10373E+05 5.74945E+05-4.36209E+06
 -1        82 5.03863E+04 5.92293E+05 6.55049E+07-2.66343E+05-1.48242E+06 6.75268E+05
 -1        83-3.10562E+05 3.32766E+04-1.03212E+08 2.66753E+05 7.42725E+05-6.89723E+05
 -1        84 9.20544E+05 1.39536E+06-2.52323E+08-4.63510E+04-3.19796E+04 1.72581E+05
 -1        85 5.66462E+05 1.83238E+06-4.01595E+08-2.02348E+03-1.96533E+05-5.90524E+04
 -1        86 1.03963E+06 2.57284E+06-4.83638E+08-7.03839E+04-2.04454E+05 2.58908E+04
 -1        87 1.23262E+06 2.90102E+06-5.63549E+08-3.28963E+04 2.14576E+04-1.50188E+04
 -1        88 1.24737E+06 2.88980E+06-5.49888E+08-5.42323E+04 3.69551E+04 6.50564E+03
 -1        89 1.15121E+06 2.75536E+06-5.33539E+08-5.01158E+04 9.10056E+04-3.16305E+04
 -1        90 9.36818E+05 2.21430E+06-4.28616E+08-4.41015E+04 1.19129E+05-1.38203E+04
 -1        91 7.18722E+05 1.70153E+06-3.21505E+08-3.03971E+04 2.59722E+05-4.00444E+04
 -1        92 3.57011E+05 8.47894E+05-1.61034E+08-1.19054E+04 2.18524E+05-3.88463E+04
 -1        93 1.17704E+08 1.40147E+08 5.45621E+08 3.21394E-07 6.30306E+07-3.81656E-06
 -1        94 1.14141E+08 1.33860E+08 5.28266E+08 1.69326E-07 2.16160E-06 5.14814E+07
 -1        95 9.60719E+07 1.15800E+08 4.86095E+08 1.24881E-07 1.58465E-06-2.81725E-06
 -1        96 1.14141E+08 1.33860E+08 5.28266E+08-1.30152E-07 3.12924E-07-5.14814E+07
 -1        97 1.17704E+08 1.40147E+08 5.45621E+08-4.20296E-08-6.30306E+07-9.97446E-07
 -1        98-6.67343E+04-2.54582E+05-4.85923E+06-5.49400E-06-9.59186E+04 8.43919E-06
 -1        99-7.86932E+04-4.46600E+05-4.97535E+06-1.50021E-06 7.66760E-06-5.53945E+04
 -1       100-1.58269E+05-5.09199E+05-5.05306E+06-1.60737E-05 5.30285E-06-2.25142E-06
 -1       101-7.86932E+04-4.46600E+05-4.97535E+06-8.21790E-06 1.64442E-06 5.53945E+04
 -1       102-6.67343E+04-2.54582E+05-4.85923E+06-6.79125E-06 9.59186E+04-5.75345E-06
 -1       103 2.57829E+07 4.41361E+07 5.43770E+08-2.46533E-06 3.50835E+07-5.04870E-06
 -1       104-3.99169E+07-4.19169E+07 4.57767E+08 1.28923E+06-3.23654E+07-1.32362E+07
 -1       105-4.18859E+07-3.92436E+07 4.73621E+08-5.94230E-06-3.32247E+07-4.73275E-06
 -1       106-3.99169E+07-4.19169E+07 4.57767E+08-1.28923E+06-3.23654E+07 1.32362E+07
 -1       107-1.99111E+06-2.91644E+06 3.56329E+08 1.25251E-06-1.19000E+06-8.41566E-07
 -1       108-6.68391E+06-4.72733E+06 2.30876E+08 2.00543E+04-8.13707E+04-2.25478E+06
 -1       109-3.77635E+06-1.96320E+06 2.36923E+08 8.08743E-06 4.12203E+05 5.70662E-06
 -1       110-6.68391E+06-4.72733E+06 2.30876E+08-2.00543E+04-8.13707E+04 2.25478E+06
 -1       111 4.89918E+05 3.89500E+05 6.50957E+07 1.25525E-06 8.28629E+05-1.80211E-07
 -1       112 2.43718E+05 2.66733E+05-1.02794E+08-1.53398E+05-4.29014E+05-4.62763E+05
 -1       113 7.97998E+05 5.00190E+05-1.02376E+08-5.17303E-06-1.15304E+05-2.58339E-06
 -1       114 2.43718E+05 2.66733E+05-1.02794E+08 1.53398E+05-4.29014E+05 4.62763E+05
 -1       115 3.63767E+06 1.04853E+06-2.55263E+08-6.17444E-06-1.26640E+05-4.60714E-06
 -1       116 3.43043E+06 2.05037E+06-4.03414E+08 4.35690E+04 2.72822E+05-2.44316E+03
 -1       117 6.29439E+06 2.26837E+06-4.05234E+08-5.72345E-06 3.49111E+05-7.21966E-06
 -1       118 3.43043E+06 2.05037E+06-4.03414E+08-4.35690E+04 2.72822E+05 2.44316E+03
 -1       119 7.42672E+06 2.66108E+06-4.88379E+08-4.95951E-06 1.23050E+05-3.59031E-06
 -1       120 4.86760E+06 2.94267E+06-5.66269E+08 8.94414E+04 3.60663E+03-1.48554E+04
 -1       121 8.50258E+06 2.98431E+06-5.68989E+08-4.71809E-06 2.86709E+04-4.61208E-06
 -1       122 4.86760E+06 2.94267E+06-5.66269E+08-8.94414E+04 3.60663E+03 1.48554E+04
 -1       123 8.33094E+06 2.93756E+06-5.55294E+08 2.00725E-06-4.11246E+04-5.27575E-06
 -1       124 4.63856E+06 2.80936E+06-5.36144E+08 1.02922E+05-7.71027E+04-1.83523E+04
 -1       125 8.12592E+06 2.86336E+06-5.38749E+08 8.36179E-06-6.31998E+04-4.80639E-06
 -1       126 4.63856E+06 2.80936E+06-5.36144E+08-1.02922E+05-7.71027E+04 1.83523E+04
 -1       127 6.50652E+06 2.28127E+06-4.32809E+08 6.92178E-06-9.63684E+04 2.38550E-07
 -1       128 2.81098E+06 1.72299E+06-3.23068E+08 6.19798E+04-2.33286E+05-3.21554E+04
 -1       129 4.90325E+06 1.74446E+06-3.24632E+08 4.90129E-06-2.06851E+05-6.27458E-06
 -1       130 2.81098E+06 1.72299E+06-3.23068E+08-6.19798E+04-2.33286E+05 3.21554E+04
 -1       131 2.45841E+06 8.63448E+05-1.62646E+08-7.24320E-06-1.76226E+05 1.31336E-06
 -1       132 2.53644E+07 3.40330E+07 5.37064E+08-5.96221E-07 2.49362E-07-2.27657E+07
 -1       133-3.38633E+07-4.35085E+07 4.75562E+08-1.57845E+06-1.40623E+07 2.78289E+07
 -1       134-2.97788E+07-4.24268E+07 5.09212E+08-1.18557E-06 1.04751E-06 2.78827E+07
 -1       135-3.38633E+07-4.35085E+07 4.75562E+08 1.57845E+06 1.40623E+07 2.78289E+07
 -1       136 4.94784E+06-1.03314E+07 3.75258E+08-3.60247E-07 2.41492E-06-2.77399E+06
 -1       137-7.87437E+06-1.05946E+07 2.29788E+08 1.66956E+05-1.59542E+06 3.41476E+06
 -1       138-6.15728E+06-1.36978E+07 2.34747E+08 1.39062E-06 2.72144E-06 2.46743E+06
 -1       139-7.87437E+06-1.05946E+07 2.29788E+08-1.66956E+05 1.59542E+06 3.41476E+06
 -1       140-1.36550E+05-2.12539E+06 6.64794E+07-9.73945E-07 3.32948E-06-4.83494E+05
 -1       141-5.11672E+04 1.94925E+06-1.04258E+08 1.32372E+05 1.55785E+05 3.99472E+05
 -1       142 2.08227E+05 3.86522E+06-1.05304E+08-3.54142E-06 6.25837E-06 1.09220E+05
 -1       143-5.11672E+04 1.94925E+06-1.04258E+08-1.32372E+05-1.55785E+05 3.99472E+05
 -1       144 6.50060E+05 9.27798E+06-2.58436E+08-5.89323E-07 2.63035E-06 1.41229E+04
 -1       145 7.02416E+05 8.14733E+06-4.06167E+08-3.60824E+04 5.15258E+04-4.33198E+04
 -1       146 8.38370E+05 1.44623E+07-4.10740E+08 1.65270E-07 2.06990E-07-1.45692E+05
 -1       147 7.02416E+05 8.14733E+06-4.06167E+08 3.60824E+04-5.15258E+04-4.33198E+04
 -1       148 1.05368E+06 1.75884E+07-4.95161E+08-3.50658E-06 2.16184E-06-4.49732E+04
 -1       149 1.26702E+06 1.17331E+07-5.70218E+08-1.01767E+05 4.51929E+04-3.41126E+03
 -1       150 1.30142E+06 2.05652E+07-5.76887E+08-6.18835E-06-4.76613E-06-2.18413E+04
 -1       151 1.26702E+06 1.17331E+07-5.70218E+08 1.01767E+05-4.51929E+04-3.41126E+03
 -1       152 1.24948E+06 2.00084E+07-5.62926E+08-6.12756E-06-4.33033E-06 1.88505E+04
 -1       153 1.17415E+06 1.10794E+07-5.39838E+08-9.84020E+04-9.03257E+04 3.15169E+04
 -1       154 1.19710E+06 1.94035E+07-5.46138E+08-5.61801E-06-3.39191E-07 3.14033E+04
 -1       155 1.17415E+06 1.10794E+07-5.39838E+08 9.84020E+04 9.03257E+04 3.15169E+04
 -1       156 9.55477E+05 1.56210E+07-4.38798E+08 1.37541E-06-6.14114E-06 3.87836E+04
 -1       157 7.27041E+05 6.78204E+06-3.25407E+08-6.26755E+04-2.45032E+05 6.54014E+04
 -1       158 7.35361E+05 1.18626E+07-3.29310E+08 1.11390E-05-7.52178E-06 9.07584E+04
 -1       159 7.27041E+05 6.78204E+06-3.25407E+08 6.26755E+04 2.45032E+05 6.54014E+04
 -1       160 3.66045E+05 5.73086E+06-1.65130E+08-4.16694E-08-3.29864E-06 8.42563E+04
 -1       161 2.57829E+07 4.41361E+07 5.43770E+08 1.17067E-06-3.50835E+07-9.13162E-07
 -1       162-3.99169E+07-4.19169E+07 4.57767E+08 1.28923E+06 3.23654E+07 1.32362E+07
 -1       163-4.18859E+07-3.92436E+07 4.73621E+08 3.06760E-06 3.32247E+07-2.01957E-06
 -1       164-3.99169E+07-4.19169E+07 4.57767E+08-1.28923E+06 3.23654E+07-1.32362E+07
 -1       165-1.99111E+06-2.91644E+06 3.56329E+08-6.61705E-07 1.19000E+06 2.52191E-06
 -1       166-6.68391E+06-4.72733E+06 2.30876E+08 2.00543E+04 8.13707E+04 2.25478E+06
 -1       167-3.77635E+06-1.96320E+06 2.36923E+08-4.18857E-06-4.12203E+05 9.70840E-06
 -1       168-6.68391E+06-4.72733E+06 2.30876E+08-2.00543E+04 8.13707E+04-2.25478E+06
 -1       169 4.89918E+05 3.89500E+05 6.50957E+07 2.49255E-06-8.28629E+05 3.12951E-06
 -1       170 2.43718E+05 2.66733E+05-1.02794E+08-1.53398E+05 4.29014E+05 4.62763E+05
 -1       171 7.97998E+05 5.00190E+05-1.02376E+08 9.25652E-06 1.15304E+05-1.78620E-06
 -1       172 2.43718E+05 2.66733E+05-1.02794E+08 1.53398E+05 4.29014E+05-4.62763E+05
 -1       173 3.63767E+06 1.04853E+06-2.55263E+08 3.66099E-06 1.26640E+05-2.01839E-06
 -1       174 3.43043E+06 2.05037E+06-4.03414E+08 4.35690E+04-2.72822E+05 2.44316E+03
 -1       175 6.29439E+06 2.26837E+06-4.05234E+08-2.83495E-06-3.49111E+05-1.01836E-05
 -1       176 3.43043E+06 2.05037E+06-4.03414E+08-4.35690E+04-2.72822E+05-2.44316E+03
 -1       177 7.42672E+06 2.66108E+06-4.88379E+08 6.01809E-07-1.23050E+05-2.18994E-06
 -1       178 4.86760E+06 2.94267E+06-5.66269E+08 8.94414E+04-3.60663E+03 1.48554E+04
 -1       179 8.50258E+06 2.98431E+06-5.68989E+08 3.65081E-06-2.86709E+04 2.81111E-06
 -1       180 4.86760E+06 2.94267E+06-5.66269E+08-8.94414E+04-3.60663E+03-1.48554E+04
 -1       181 8.33094E+06 2.93756E+06-5.55294E+08-4.46162E-07 4.11246E+04-2.29596E-06
 -1       182 4.63856E+06 2.80936E+06-5.36144E+08 1.02922E+05 7.71027E+04 1.83523E+04
 -1       183 8.12592E+06 2.86336E+06-5.38749E+08-1.97214E-06 6.31998E+04 1.41195E-06
 -1       184 4.63856E+06 2.80936E+06-5.36144E+08-1.02922E+05 7.71027E+04-1.83523E+04
 -1       185 6.50652E+06 2.28127E+06-4.32809E+08 3.26209E-06 9.63684E+04-2.54580E-07
 -1       186 2.81098E+06 1.72299E+06-3.23068E+08 6.19798E+04 2.33286E+05 3.21554E+04
 -1       187 4.90325E+06 1.74446E+06-3.24632E+08 3.52661E-06 2.06851E+05 2.57300E-06
 -1       188 2.81098E+06 1.72299E+06-3.23068E+08-6.19798E+04 2.33286E+05-3.21554E+04
 -1       189 2.45841E+06 8.63448E+05-1.62646E+08 1.35679E-05 1.76226E+05 9.46762E-07
 -1       190 2.53644E+07 3.40330E+07 5.37064E+08 1.83185E-06 1.53203E-06 2.27657E+07
 -1       191-3.38633E+07-4.35085E+07 4.75562E+08-1.57845E+06 1.40623E+07-2.78289E+07
 -1       192-2.97788E+07-4.24268E+07 5.09212E+08 2.89560E-06 2.62447E-06-2.78827E+07
 -1       193-3.38633E+07-4.35085E+07 4.75562E+08 1.57845E+06-1.40623E+07-2.78289E+07
 -1       194 4.94784E+06-1.03314E+07 3.75258E+08 9.97155E-07-4.93135E-07 2.77399E+06
 -1       195-7.87437E+06-1.05946E+07 2.29788E+08 1.66956E+05 1.59542E+06-3.41476E+06
 -1       196-6.15728E+06-1.36978E+07 2.34747E+08-5.56203E-07-3.47954E-06-2.46743E+06
 -1       197-7.87437E+06-1.05946E+07 2.29788E+08-1.66956E+05-1.59542E+06-3.41476E+06
 -1       198-1.36550E+05-2.12539E+06 6.64794E+07-1.22545E-06-3.67832E-06 4.83494E+05
 -1       199-5.11672E+04 1.94925E+06-1.04258E+08 1.32372E+05-1.55785E+05-3.99472E+05
 -1       200 2.08227E+05 3.86522E+06-1.05304E+08-3.15347E-07-5.04154E-06-1.09220E+05
 -1       201-5.11672E+04 1.94925E+06-1.04258E+08-1.32372E+05 1.55785E+05-3.99472E+05
 -1       202 6.50060E+05 9.27798E+06-2.58436E+08-1.40650E-06-1.68808E-06-1.41229E+04
 -1       203 7.02416E+05 8.14733E+06-4.06167E+08-3.60824E+04-5.15258E+04 4.33198E+04
 -1       204 8.38370E+05 1.44623E+07-4.10740E+08-4.22293E-06 2.56219E-07 1.45692E+05
 -1       205 7.02416E+05 8.14733E+06-4.06167E+08 3.60824E+04 5.15258E+04 4.33198E+04
 -1       206 1.05368E+06 1.75884E+07-4.95161E+08-1.26104E-05-8.95507E-07 4.49732E+04
 -1       207 1.26702E+06 1.17331E+07-5.70218E+08-1.01767E+05-4.51929E+04 3.41126E+03
 -1       208 1.30142E+06 2.05652E+07-5.76887E+08-2.09676E-05 1.44730E-06 2.18413E+04
 -1       209 1.26702E+06 1.17331E+07-5.70218E+08 1.01767E+05 4.51929E+04 3.41126E+03
 -1       210 1.24948E+06 2.00084E+07-5.62926E+08-9.09570E-06 2.68235E-06-1.88505E+04
 -1       211 1.17415E+06 1.10794E+07-5.39838E+08-9.84020E+04 9.03257E+04-3.15169E+04
 -1       212 1.19710E+06 1.94035E+07-5.46138E+08 4.95199E-06 1.96348E-06-3.14033E+04
 -1       213 1.17415E+06 1.10794E+07-5.39838E+08 9.84020E+04-9.03257E+04-3.15169E+04
 -1       214 9.55477E+05 1.56210E+07-4.38798E+08-2.44720E-07-3.48999E-07-3.87836E+04
 -1       215 7.27041E+05 6.78204E+06-3.25407E+08-6.26755E+04 2.45032E+05-6.54014E+04
 -1       216 7.35361E+05 1.18626E+07-3.29310E+08-7.28987E-06-3.46923E-06-9.07584E+04
 -1       217 7.27041E+05 6.78204E+06-3.25407E+08 6.26755E+04-2.45032E+05-6.54014E+04
 -1       218 3.66045E+05 5.73086E+06-1.65130E+08 9.50101E-06 2.68088E-06-8.42563E+04
 -1       219 2.55561E+07 4.02993E+07 5.54011E+08 1.10726E-07 1.57184E-06-1.86451E-06
 -1       220-3.34477E+07-3.17756E+07 5.12880E+08-1.91273E-06-1.51412E+07-2.68780E-06
 -1       221-2.73942E+07-3.33671E+07 5.30676E+08 8.52422E-07 1.82656E-06-1.30299E+07
 -1       222-2.50096E+07-2.43075E+07 5.52140E+08-2.52970E-07 1.07638E-06-5.26430E-07
 -1       223-2.73942E+07-3.33671E+07 5.30676E+08-2.50380E-07 1.08592E-06 1.30299E+07
 -1       224-3.34477E+07-3.17756E+07 5.12880E+08 2.22375E-07 1.51412E+07-1.21538E-06
 -1       225-4.40637E+06-1.19575E+07 3.69658E+08-6.35569E-07-3.83821E-07 1.44902E-06
 -1       226-3.33938E+06-6.10784E+06 2.40917E+08-1.94988E-06-8.23226E+05 3.82302E-06
 -1       227-4.52984E+06-1.19751E+07 2.39829E+08-1.32355E-06-3.49549E-06-1.70894E+06
 -1       228-2.90240E+06-1.02525E+07 2.44911E+08-5.32116E-07-3.00200E-06 2.28886E-06
 -1       229-4.52984E+06-1.19751E+07 2.39829E+08 1.20865E-06 1.14553E-07 1.70894E+06
 -1       230-3.33938E+06-6.10784E+06 2.40917E+08 3.36720E-06 8.23226E+05 6.17330E-06
 -1       231-2.24892E+05-2.58961E+06 6.62111E+07 1.55106E-06-1.75604E-06 1.95405E-06
 -1       232 1.15104E+06 2.53762E+06-1.03853E+08 6.27038E-07 3.58418E+05-3.51471E-06
 -1       233 8.56156E+05 4.22013E+06-1.05317E+08 2.51253E-06-2.78771E-06-1.74436E+04
 -1       234 1.50408E+06 4.57505E+06-1.05330E+08 3.92481E-06-1.94021E-07-3.82115E-06
 -1       235 8.56156E+05 4.22013E+06-1.05317E+08-5.16109E-07 3.20218E-06 1.74436E+04
 -1       236 1.15104E+06 2.53762E+06-1.03853E+08 5.33951E-06-3.58418E+05-2.49125E-06
 -1       237 4.00967E+06 9.93006E+06-2.60605E+08 4.28996E-06 1.42711E-07-3.50775E-06
 -1       238 6.46708E+06 8.94868E+06-4.09799E+08-6.57274E-07 1.48580E+05-3.91461E-06
 -1       239 3.73907E+06 1.50456E+07-4.12551E+08-7.43672E-07 7.86240E-08 8.18878E+04
 -1       240 6.63977E+06 1.56290E+07-4.14363E+08 2.83622E-06 3.99494E-07-6.26344E-07
 -1       241 3.73907E+06 1.50456E+07-4.12551E+08 1.55106E-06 5.52471E-07-8.18878E+04
 -1       242 6.46708E+06 8.94868E+06-4.09799E+08-7.85709E-07-1.48580E+05-5.41338E-06
 -1       243 7.92879E+06 1.89236E+07-4.99290E+08 1.08555E-05-1.56423E-06-1.49044E-06
 -1       244 8.84774E+06 1.25574E+07-5.75382E+08 8.61453E-06 5.86226E+04-7.28138E-07
 -1       245 5.24716E+06 2.13479E+07-5.79331E+08 3.51998E-06-1.79898E-09 2.49634E+04
 -1       246 9.19290E+06 2.21305E+07-5.81774E+08 2.03872E-05-6.05522E-07 2.80452E-06
 -1       247 5.24716E+06 2.13479E+07-5.79331E+08 3.28925E-06-2.26314E-06-2.49634E+04
 -1       248 8.84774E+06 1.25574E+07-5.75382E+08 1.12391E-05-5.86226E+04 2.63217E-06
 -1       249 8.95897E+06 2.15281E+07-5.67662E+08 9.61919E-06-2.31498E-06 9.94925E-07
 -1       250 8.41977E+06 1.18740E+07-5.44758E+08 5.12694E-06-6.68391E+04-2.28361E-06
 -1       251 4.95536E+06 2.01441E+07-5.48452E+08 7.43561E-07 1.63630E-06-2.84733E+04
 -1       252 8.71362E+06 2.08847E+07-5.50767E+08-2.95311E-07 3.35673E-07 7.20684E-09
 -1       253 4.95536E+06 2.01441E+07-5.48452E+08-1.37189E-06-4.88482E-07 2.84733E+04
 -1       254 8.41977E+06 1.18740E+07-5.44758E+08-2.22743E-06 6.68391E+04 5.93598E-07
 -1       255 7.00438E+06 1.68121E+07-4.42478E+08 5.29516E-06 1.32174E-06 3.54195E-06
 -1       256 5.10266E+06 7.24528E+06-3.28353E+08 7.26662E-06-1.95585E+05 2.67934E-07
 -1       257 3.01871E+06 1.23043E+07-3.30691E+08 1.04362E-05-1.52367E-06-8.07338E+04
 -1       258 5.30206E+06 1.27461E+07-3.32073E+08 1.23710E-05 6.39448E-08 5.60468E-06
 -1       259 3.01871E+06 1.23043E+07-3.30691E+08 3.85938E-06-3.90790E-06 8.07338E+04
 -1       260 5.10266E+06 7.24528E+06-3.28353E+08 9.31832E-06 1.95585E+05 3.48595E-06
 -1       261 2.57059E+06 6.10456E+06-1.66581E+08-6.21579E-07 4.50067E-06 2.11986E-06
 -3
    1PSTEP                        27           1           1          
    1PGM                1.000000E+00                                  
    1PGK                1.111147E+07                                  
    1PHID                         -1                                  
    1PSUBC                         0                                  
    1PMODE                        14                                  
  100CL  114 5.30525E+02         261                     2   14MODAL      1
 -4  DISP        4    1
 -5  D1          1    2    1    0
 -5  D2          1    2    2    0
 -5  D3          1    2    3    0
 -5  ALL         1    2    0    0    1ALL
 -1         1 0.00000E+00 0.00000E+00 0.00000E+00
 -1         2 0.00000E+00 0.00000E+00 0.00000E+00
 -1         3 0.00000E+00 0.00000E+00 0.00000E+00
 -1         4 0.00000E+00 0.00000E+00 0.00000E+00
 -1         5 5.21352E-03 1.69260E-04 4.12207E-03
 -1         6 5.21352E-03-1.69260E-04-4.12207E-03
 -1         7 5.21352E-03 1.69260E-04-4.12207E-03
 -1         8 5.21352E-03-1.69260E-04 4.12207E-03
 -1         9 0.00000E+00 0.00000E+00 0.00000E+00
 -1        10 0.00000E+00 0.00000E+00 0.00000E+00
 -1        11 0.00000E+00 0.00000E+00 0.00000E+00
 -1        12 0.00000E+00 0.00000E+00 0.00000E+00
 -1        13 0.00000E+00 0.00000E+00 0.00000E+00
 -1        14 0.00000E+00 0.00000E+00 0.00000E+00
 -1        15 0.00000E+00 0.00000E+00 0.00000E+00
 -1        16 0.00000E+00 0.00000E+00 0.00000E+00
 -1        17 0.00000E+00 0.00000E+00 0.00000E+00
 -1        18 0.00000E+00 0.00000E+00 0.00000E+00
 -1        19 0.00000E+00 0.00000E+00 0.00000E+00
 -1        20 0.00000E+00 0.00000E+00 0.00000E+00
 -1        21 5.15599E-03 5.77704E-05 1.93611E-03
 -1        22 5.07999E-03-1.25767E-17-4.16334E-17
 -1        23 5.15599E-03-5.77704E-05-1.93611E-03
 -1        24 5.40743E-03-1.36812E-04-4.27196E-03
 -1        25 5.52189E-03-4.33681E-18-4.26106E-03
 -1        26 5.40743E-03 1.36812E-04-4.27196E-03
 -1        27 5.15599E-03 5.77704E-05-1.93611E-03
 -1        28 5.07999E-03-1.25767E-17-1.99493E-17
 -1        29 5.15599E-03-5.77704E-05 1.93611E-03
 -1        30 5.40743E-03-1.36812E-04 4.27196E-03
 -1        31 5.52189E-03-1.43115E-17 4.26106E-03
 -1        32 5.40743E-03 1.36812E-04 4.27196E-03
 -1        33 2.71493E-03-1.22279E-05-9.44542E-04
 -1        34 4.77173E-03 6.65061E-04-2.29278E-04
 -1        35 4.36093E-03 6.46142E-04 1.47912E-03
 -1        36 1.04629E-03 1.19455E-04 2.58097E-03
 -1        37-2.77216E-03-5.79031E-04 1.94897E-03
 -1        38-4.61061E-03-8.84325E-04 1.34916E-04
 -1        39-3.07041E-03-5.97675E-04-1.71081E-03
 -1        40 6.17595E-04 9.75661E-05-2.41297E-03
 -1        41 3.90104E-03 7.08980E-04-1.30421E-03
 -1        42 4.51539E-03 8.01596E-04 6.29813E-04
 -1        43 1.95851E-03 3.07519E-04 2.02771E-03
 -1        44-1.83425E-03-4.49328E-04 1.96724E-03
 -1        45-4.15791E-03-9.69723E-04 2.07608E-04
 -1        46-3.23099E-03-9.53462E-04-2.11007E-03
 -1        47 5.47655E-04-5.60349E-04-3.63356E-03
 -1        48 5.47655E-04 5.60349E-04 3.63356E-03
 -1        49-3.23099E-03 9.53462E-04 2.11007E-03
 -1        50-4.15791E-03 9.69723E-04-2.07608E-04
 -1        51-1.83425E-03 4.49328E-04-1.96724E-03
 -1        52 1.95851E-03-3.07519E-04-2.02771E-03
 -1        53 4.51539E-03-8.01596E-04-6.29813E-04
 -1        54 3.90104E-03-7.08980E-04 1.30421E-03
 -1        55 6.17595E-04-9.75661E-05 2.41297E-03
 -1        56-3.07041E-03 5.97675E-04 1.71081E-03
 -1        57-4.61061E-03 8.84325E-04-1.34916E-04
 -1        58-2.77216E-03 5.79031E-04-1.94897E-03
 -1        59 1.04629E-03-1.19455E-04-2.58097E-03
 -1        60 4.36093E-03-6.46142E-04-1.47912E-03
 -1        61 4.77173E-03-6.65061E-04 2.29278E-04
 -1        62 2.71493E-03 1.22279E-05 9.44542E-04
 -1        63 2.71493E-03 1.22279E-05-9.44542E-04
 -1        64 4.77173E-03-6.65061E-04-2.29278E-04
 -1        65 4.36093E-03-6.46142E-04 1.47912E-03
 -1        66 1.04629E-03-1.19455E-04 2.58097E-03
 -1        67-2.77216E-03 5.79031E-04 1.94897E-03
 -1        68-4.61061E-03 8.84325E-04 1.34916E-04
 -1        69-3.07041E-03 5.97675E-04-1.71081E-03
 -1        70 6.17595E-04-9.75661E-05-2.41297E-03
 -1        71 3.90104E-03-7.08980E-04-1.30421E-03
 -1        72 4.51539E-03-8.01596E-04 6.29813E-04
 -1        73 1.95851E-03-3.07519E-04 2.02771E-03
 -1        74-1.83425E-03 4.49328E-04 1.96724E-03
 -1        75-4.15791E-03 9.69723E-04 2.07608E-04
 -1        76-3.23099E-03 9.53462E-04-2.11007E-03
 -1        77 5.47655E-04 5.60349E-04-3.63356E-03
 -1        78 2.71493E-03-1.22279E-05 9.44542E-04
 -1        79 4.77173E-03 6.65061E-04 2.29278E-04
 -1        80 4.36093E-03 6.46142E-04-1.47912E-03
 -1        81 1.04629E-03 1.19455E-04-2.58097E-03
 -1        82-2.77216E-03-5.79031E-04-1.94897E-03
 -1        83-4.61061E-03-8.84325E-04-1.34916E-04
 -1        84-3.07041E-03-5.97675E-04 1.71081E-03
 -1        85 6.17595E-04 9.75661E-05 2.41297E-03
 -1        86 3.90104E-03 7.08980E-04 1.30421E-03
 -1        87 4.51539E-03 8.01596E-04-6.29813E-04
 -1        88 1.95851E-03 3.07519E-04-2.02771E-03
 -1        89-1.83425E-03-4.49328E-04-1.96724E-03
 -1        90-4.15791E-03-9.69723E-04-2.07608E-04
 -1        91-3.23099E-03-9.53462E-04 2.11007E-03
 -1        92 5.47655E-04-5.60349E-04 3.63356E-03
 -1        93 0.00000E+00 0.00000E+00 0.00000E+00
 -1        94 0.00000E+00 0.00000E+00 0.00000E+00
 -1        95 0.00000E+00 0.00000E+00 0.00000E+00
 -1        96 0.00000E+00 0.00000E+00 0.00000E+00
 -1        97 0.00000E+00 0.00000E+00 0.00000E+00
 -1        98 5.27023E-03-7.80626E-18-3.25261E-17
 -1        99 5.51202E-03-1.69136E-17 2.05641E-03
 -1       100 5.46160E-03-3.90313E-18-2.76472E-17
 -1       101 5.51202E-03-1.99493E-17-2.05641E-03
 -1       102 5.27023E-03-3.03577E-18-2.35272E-17
 -1       103 2.65782E-03 4.77049E-18 1.08420E-17
 -1       104 5.00979E-03-3.34420E-04-1.39374E-04
 -1       105 5.14047E-03 4.01155E-18 1.69136E-17
 -1       106 5.00979E-03 3.34420E-04 1.39374E-04
 -1       107 4.41301E-03 8.23994E-18 1.73472E-17
 -1       108 1.12069E-03-6.17328E-05-9.59909E-04
 -1       109 1.14412E-03 3.46945E-18 2.34188E-17
 -1       110 1.12069E-03 6.17328E-05 9.59909E-04
 -1       111-2.91186E-03 4.87891E-18 2.68882E-17
 -1       112-4.85366E-03 4.47100E-04-6.53051E-05
 -1       113-4.88342E-03-3.46945E-18 2.73219E-17
 -1       114-4.85366E-03-4.47100E-04 6.53051E-05
 -1       115-3.20872E-03-4.01155E-18 2.26056E-17
 -1       116 6.49673E-04-4.95888E-05 8.78737E-04
 -1       117 6.55536E-04-3.03577E-18 2.58040E-17
 -1       118 6.49673E-04 4.95888E-05-8.78737E-04
 -1       119 4.05457E-03-1.70762E-18 1.86483E-17
 -1       120 4.74479E-03-4.06219E-04-2.15136E-04
 -1       121 4.78008E-03-1.73472E-18 1.30104E-17
 -1       122 4.74479E-03 4.06219E-04 2.15136E-04
 -1       123 2.02929E-03 4.87891E-18 2.81893E-18
 -1       124-1.96731E-03 2.25283E-04-6.73724E-04
 -1       125-2.00144E-03 2.60209E-18-5.85469E-18
 -1       126-1.96731E-03-2.25283E-04 6.73724E-04
 -1       127-4.37388E-03 3.46945E-18-1.69136E-17
 -1       128-3.50559E-03 4.80783E-04 9.39887E-04
 -1       129-3.59366E-03-3.03577E-18-2.56414E-17
 -1       130-3.50559E-03-4.80783E-04-9.39887E-04
 -1       131 4.58971E-04-6.61363E-18-3.70797E-17
 -1       132 2.63935E-03 1.18178E-17-1.00113E-03
 -1       133 4.46270E-03 3.25661E-04-3.62012E-04
 -1       134 4.37331E-03 2.19822E-17-2.76165E-04
 -1       135 4.46270E-03-3.25661E-04-3.62012E-04
 -1       136 3.91016E-03 2.55872E-17 1.52095E-03
 -1       137 9.74487E-04 4.97927E-05 2.78288E-03
 -1       138 9.84002E-04 2.54788E-17 2.62776E-03
 -1       139 9.74487E-04-4.97927E-05 2.78288E-03
 -1       140-2.36203E-03 7.15573E-18 2.00808E-03
 -1       141-4.09575E-03-4.21887E-04 1.36560E-04
 -1       142-3.99336E-03-8.45678E-18 1.34494E-04
 -1       143-4.09575E-03 4.21887E-04 1.36560E-04
 -1       144-2.64842E-03-2.32019E-17-1.77015E-03
 -1       145 5.61155E-04 4.54447E-05-2.61688E-03
 -1       146 5.52887E-04-3.88144E-17-2.46770E-03
 -1       147 5.61155E-04-4.54447E-05-2.61688E-03
 -1       148 3.40529E-03-3.77302E-17-1.34780E-03
 -1       149 4.05485E-03 3.81097E-04 6.92080E-04
 -1       150 3.96518E-03-2.64545E-17 6.47569E-04
 -1       151 4.05485E-03-3.81097E-04 6.92080E-04
 -1       152 1.75069E-03-1.08420E-17 2.10434E-03
 -1       153-1.57377E-03-2.18858E-04 2.16216E-03
 -1       154-1.51417E-03 6.93889E-18 2.02664E-03
 -1       155-1.57377E-03 2.18858E-04 2.16216E-03
 -1       156-3.45263E-03 8.23994E-18 2.33970E-04
 -1       157-2.67902E-03-4.70158E-04-2.18558E-03
 -1       158-2.52639E-03 1.51788E-18-2.12493E-03
 -1       159-2.67902E-03 4.70158E-04-2.18558E-03
 -1       160 1.01100E-03 2.60209E-18-3.70765E-03
 -1       161 2.65782E-03 2.71051E-19 8.23994E-18
 -1       162 5.00979E-03-3.34420E-04 1.39374E-04
 -1       163 5.14047E-03 5.31259E-18 1.45283E-17
 -1       164 5.00979E-03 3.34420E-04-1.39374E-04
 -1       165 4.41301E-03 3.03577E-18 1.66967E-17
 -1       166 1.12069E-03-6.17328E-05 9.59909E-04
 -1       167 1.14412E-03-8.67362E-19 2.49366E-17
 -1       168 1.12069E-03 6.17328E-05-9.59909E-04
 -1       169-2.91186E-03 3.03577E-18 2.92464E-17
 -1       170-4.85366E-03 4.47100E-04 6.53051E-05
 -1       171-4.88342E-03-4.55365E-18 2.90566E-17
 -1       172-4.85366E-03-4.47100E-04-6.53051E-05
 -1       173-3.20872E-03 8.67362E-19 2.17925E-17
 -1       174 6.49673E-04-4.95888E-05-8.78737E-04
 -1       175 6.55536E-04 4.33681E-18 1.38507E-17
 -1       176 6.49673E-04 4.95888E-05 8.78737E-04
 -1       177 4.05457E-03 4.77049E-18 8.45678E-18
 -1       178 4.74479E-03-4.06219E-04 2.15136E-04
 -1       179 4.78008E-03 5.20417E-18-4.33681E-19
 -1       180 4.74479E-03 4.06219E-04-2.15136E-04
 -1       181 2.02929E-03 1.08420E-17-1.73472E-18
 -1       182-1.96731E-03 2.25283E-04 6.73724E-04
 -1       183-2.00144E-03 7.80626E-18-3.46945E-18
 -1       184-1.96731E-03-2.25283E-04-6.73724E-04
 -1       185-4.37388E-03 8.67362E-18-8.56520E-18
 -1       186-3.50559E-03 4.80783E-04-9.39887E-04
 -1       187-3.59366E-03-4.77049E-18-5.85469E-18
 -1       188-3.50559E-03-4.80783E-04 9.39887E-04
 -1       189 4.58971E-04-7.80626E-18-1.56125E-17
 -1       190 2.63935E-03-8.78204E-18 1.00113E-03
 -1       191 4.46270E-03 3.25661E-04 3.62012E-04
 -1       192 4.37331E-03-8.45678E-18 2.76165E-04
 -1       193 4.46270E-03-3.25661E-04 3.62012E-04
 -1       194 3.91016E-03-1.60462E-17-1.52095E-03
 -1       195 9.74487E-04 4.97927E-05-2.78288E-03
 -1       196 9.84002E-04-1.06252E-17-2.62776E-03
 -1       197 9.74487E-04-4.97927E-05-2.78288E-03
 -1       198-2.36203E-03-3.46945E-18-2.00808E-03
 -1       199-4.09575E-03-4.21887E-04-1.36560E-04
 -1       200-3.99336E-03 6.50521E-18-1.34494E-04
 -1       201-4.09575E-03 4.21887E-04-1.36560E-04
 -1       202-2.64842E-03 1.92988E-17 1.77015E-03
 -1       203 5.61155E-04 4.54447E-05 2.61688E-03
 -1       204 5.52887E-04 3.20924E-17 2.46770E-03
 -1       205 5.61155E-04-4.54447E-05 2.61688E-03
 -1       206 3.40529E-03 4.31512E-17 1.34780E-03
 -1       207 4.05485E-03 3.81097E-04-6.92080E-04
 -1       208 3.96518E-03 2.77556E-17-6.47569E-04
 -1       209 4.05485E-03-3.81097E-04-6.92080E-04
 -1       210 1.75069E-03 2.42861E-17-2.10434E-03
 -1       211-1.57377E-03-2.18858E-04-2.16216E-03
 -1       212-1.51417E-03 1.86483E-17-2.02664E-03
 -1       213-1.57377E-03 2.18858E-04-2.16216E-03
 -1       214-3.45263E-03 8.02310E-18-2.33970E-04
 -1       215-2.67902E-03-4.70158E-04 2.18558E-03
 -1       216-2.52639E-03-1.34441E-17 2.12493E-03
 -1       217-2.67902E-03 4.70158E-04 2.18558E-03
 -1       218 1.01100E-03-1.92988E-17 3.70765E-03
 -1       219 2.55367E-03 4.55365E-18 5.42101E-18
 -1       220 4.84516E-03 4.22839E-18 1.43115E-17
 -1       221 4.63255E-03 1.30104E-18-5.08734E-05
 -1       222 4.77517E-03 7.58942E-18 1.25767E-17
 -1       223 4.63255E-03 1.45283E-17 5.08734E-05
 -1       224 4.84516E-03 5.20417E-18 1.49620E-17
 -1       225 4.03150E-03 4.82470E-18 2.05998E-17
 -1       226 1.07382E-03 2.81893E-18 2.21177E-17
 -1       227 1.06693E-03-1.51788E-18-1.10202E-03
 -1       228 1.09085E-03 3.65918E-18 2.03830E-17
 -1       229 1.06693E-03 1.30104E-17 1.10202E-03
 -1       230 1.07382E-03 3.68629E-18 2.42861E-17
 -1       231-2.54204E-03 7.58942E-19 2.52619E-17
 -1       232-4.38330E-03 2.38524E-18 2.88398E-17
 -1       233-4.26862E-03 4.33681E-18-6.65285E-05
 -1       234-4.31045E-03 2.38524E-18 2.68882E-17
 -1       235-4.26862E-03-2.52077E-18 6.65285E-05
 -1       236-4.38330E-03-5.20417E-18 2.66714E-17
 -1       237-2.83333E-03-2.47334E-18 2.38524E-17
 -1       238 6.01222E-04-1.40946E-18 2.62377E-17
 -1       239 5.89777E-04 1.73472E-17 1.02747E-03
 -1       240 5.97498E-04 1.08420E-18 2.28767E-17
 -1       241 5.89777E-04-2.08167E-17-1.02747E-03
 -1       242 6.01222E-04 4.33681E-18 1.95156E-17
 -1       243 3.61907E-03 1.78893E-18 1.34441E-17
 -1       244 4.33392E-03-3.79471E-19 1.25767E-17
 -1       245 4.22707E-03 8.67362E-18-2.61183E-04
 -1       246 4.27488E-03 3.46945E-18 7.80626E-18
 -1       247 4.22707E-03-9.16151E-18 2.61183E-04
 -1       248 4.33392E-03-4.33681E-19 3.90313E-18
 -1       249 1.85008E-03 9.45543E-18 1.08420E-18
 -1       250-1.74292E-03 8.67362E-18-6.28837E-18
 -1       251-1.65380E-03 1.25767E-17-8.18561E-04
 -1       252-1.68714E-03 9.97466E-18-5.31259E-18
 -1       253-1.65380E-03 8.67362E-18 8.18561E-04
 -1       254-1.74292E-03 1.25767E-17-5.85469E-18
 -1       255-3.73110E-03 8.23994E-18-1.25767E-17
 -1       256-3.03446E-03-3.46945E-18-2.49366E-17
 -1       257-2.80427E-03-5.20417E-18 9.87536E-04
 -1       258-2.88677E-03 1.73472E-18-1.92988E-17
 -1       259-2.80427E-03 2.38524E-18-9.87536E-04
 -1       260-3.03446E-03 2.00577E-18-1.16010E-17
 -1       261 9.08776E-04-8.56520E-18-2.37440E-17
 -3
    1PSTEP                        28           1           1          
    1PGM                1.000000E+00                                  
    1PGK                1.111147E+07                                  
    1PHID                         -1                                  
    1PSUBC                         0                                  
    1PMODE                        14                                  
  100CL  114 5.30525E+02         261                     2   14MODAL      1
 -4  STRESS      6    1
 -5  SXX         1    4    1    1
 -5  SYY         1    4    2    2
 -5  SZZ         1    4    3    3
 -5  SXY         1    4    1    2
 -5  SYZ         1    4    2    3
 -5  SZX         1    4    3    1
 -1         1 2.90122E+08 2.92629E+08 8.99824E+08-2.82518E+07 6.03146E+07 3.99315E+08
 -1         2-2.90122E+08-2.92629E+08-8.99824E+08-2.82518E+07-6.03146E+07 3.99315E+08
 -1         3-2.90122E+08-2.92629E+08-8.99824E+08 2.82518E+07 6.03146E+07 3.99315E+08
 -1         4 2.90122E+08 2.92629E+08 8.99824E+08 2.82518E+07-6.03146E+07 3.99315E+08
 -1         5-7.14585E+06 1.09040E+07-1.06900E+07-2.19275E+06-8.46856E+06 1.12953E+07
 -1         6 7.14585E+06-1.09040E+07 1.06900E+07-2.19275E+06 8.46856E+06 1.12953E+07
 -1         7 7.14585E+06-1.09040E+07 1.06900E+07 2.19275E+06-8.46856E+06 1.12953E+07
 -1         8-7.14585E+06 1.09040E+07-1.06900E+07 2.19275E+06 8.46856E+06 1.12953E+07
 -1         9 8.92930E+07 1.16552E+08 4.06473E+08-2.98717E+07 3.01068E+07 3.75123E+08
 -1        10-1.63913E-07 1.32248E-06 5.79655E-06-3.14916E+07 8.36677E-07 3.50930E+08
 -1        11-8.92930E+07-1.16552E+08-4.06473E+08-2.98717E+07-3.01068E+07 3.75123E+08
 -1        12-2.95117E+08-3.02484E+08-9.27679E+08-9.68798E+06-3.15324E+07 4.01535E+08
 -1        13-3.00112E+08-3.12339E+08-9.55533E+08 2.79397E-09 2.03215E-06 4.03755E+08
 -1        14-2.95117E+08-3.02484E+08-9.27679E+08 9.68798E+06 3.15324E+07 4.01535E+08
 -1        15-8.92930E+07-1.16552E+08-4.06473E+08 2.98717E+07 3.01068E+07 3.75123E+08
 -1        16 9.46224E-07 1.10641E-06 4.64171E-06 3.14916E+07-3.23635E-07 3.50930E+08
 -1        17 8.92930E+07 1.16552E+08 4.06473E+08 2.98717E+07-3.01068E+07 3.75123E+08
 -1        18 2.95117E+08 3.02484E+08 9.27679E+08 9.68798E+06-3.15324E+07 4.01535E+08
 -1        19 3.00112E+08 3.12339E+08 9.55533E+08-7.54371E-08-2.31690E-06 4.03755E+08
 -1        20 2.95117E+08 3.02484E+08 9.27679E+08-9.68798E+06 3.15324E+07 4.01535E+08
 -1        21-2.82629E+07-2.60009E+06-1.58569E+07 8.58716E+06-3.24242E+06 7.42734E+07
 -1        22-4.20585E-06-3.44589E-08-1.00583E-06 1.93671E+07 9.12114E-07 1.37251E+08
 -1        23 2.82629E+07 2.60009E+06 1.58569E+07 8.58716E+06 3.24242E+06 7.42734E+07
 -1        24 8.70428E+06 4.90534E+07 1.41813E+07 2.99004E+06 1.07620E+07 8.02090E+06
 -1        25 1.02627E+07 1.09011E+08 1.76725E+07 1.39652E-06-1.30478E-06 4.74652E+06
 -1        26 8.70428E+06 4.90534E+07 1.41813E+07-2.99004E+06-1.07620E+07 8.02090E+06
 -1        27 2.82629E+07 2.60009E+06 1.58569E+07-8.58716E+06-3.24242E+06 7.42734E+07
 -1        28-4.00096E-06-8.22823E-06-3.96371E-06-1.93671E+07-1.87848E-06 1.37251E+08
 -1        29-2.82629E+07-2.60009E+06-1.58569E+07-8.58716E+06 3.24242E+06 7.42734E+07
 -1        30-8.70428E+06-4.90534E+07-1.41813E+07-2.99004E+06 1.07620E+07 8.02090E+06
 -1        31-1.02627E+07-1.09011E+08-1.76725E+07 2.74787E-06 2.76323E-06 4.74652E+06
 -1        32-8.70428E+06-4.90534E+07-1.41813E+07 2.99004E+06-1.07620E+07 8.02090E+06
 -1        33-1.08396E+08-9.16669E+07-8.79059E+07-2.04567E+07 2.26682E+07 1.86533E+08
 -1        34 6.84232E+07 6.79012E+07 7.77178E+08 7.22214E+06 4.48281E+07-1.80686E+07
 -1        35 6.81370E+07 2.65453E+07 5.76995E+08 1.58087E+07-2.43890E+07-4.76257E+07
 -1        36-1.08953E+07-1.08362E+07 1.42424E+08-7.07076E+06-4.15399E+07-7.12638E+07
 -1        37-3.75431E+07-1.37634E+07-5.07805E+08-6.59562E+06-3.15833E+07-5.05014E+07
 -1        38 1.24536E+07 1.76481E+07-9.82470E+08 5.51671E+06-9.76518E+05-6.33209E+06
 -1        39-2.63403E+07-6.89557E+06-5.23806E+08-4.16234E+06 3.11610E+07 5.61472E+07
 -1        40-1.40914E+06-2.44493E+06 1.14427E+08-9.18594E+05 4.94891E+07 7.89598E+07
 -1        41 3.51565E+07 1.02436E+07 6.24930E+08 5.96204E+06 2.28874E+07 4.19036E+07
 -1        42-4.42757E+06-1.10896E+07 9.14101E+08-3.59875E+06-1.45133E+07-2.41062E+07
 -1        43 1.84255E+07 5.76213E+06 2.74348E+08 3.17055E+06-4.05491E+07-7.29318E+07
 -1        44 5.16138E+06 6.76956E+06-4.66626E+08 2.13645E+06-4.76480E+07-7.98482E+07
 -1        45-4.06362E+07-1.18889E+07-8.45129E+08-6.64764E+06-1.45590E+07-2.31650E+07
 -1        46-6.72195E+06 1.01262E+07-9.59627E+08 1.86336E+06 2.04316E+07 4.00191E+07
 -1        47 1.22929E+07 7.97140E+06-4.16786E+08 2.84932E+06 1.85118E+07 3.43056E+07
 -1        48-1.22929E+07-7.97140E+06 4.16786E+08 2.84932E+06-1.85118E+07 3.43056E+07
 -1        49 6.72195E+06-1.01262E+07 9.59627E+08 1.86336E+06-2.04316E+07 4.00191E+07
 -1        50 4.06362E+07 1.18889E+07 8.45129E+08-6.64764E+06 1.45590E+07-2.31650E+07
 -1        51-5.16138E+06-6.76956E+06 4.66626E+08 2.13645E+06 4.76480E+07-7.98482E+07
 -1        52-1.84255E+07-5.76213E+06-2.74348E+08 3.17055E+06 4.05491E+07-7.29318E+07
 -1        53 4.42757E+06 1.10896E+07-9.14101E+08-3.59875E+06 1.45133E+07-2.41062E+07
 -1        54-3.51565E+07-1.02436E+07-6.24930E+08 5.96204E+06-2.28874E+07 4.19036E+07
 -1        55 1.40914E+06 2.44493E+06-1.14427E+08-9.18594E+05-4.94891E+07 7.89598E+07
 -1        56 2.63403E+07 6.89557E+06 5.23806E+08-4.16234E+06-3.11610E+07 5.61472E+07
 -1        57-1.24536E+07-1.76481E+07 9.82470E+08 5.51671E+06 9.76518E+05-6.33209E+06
 -1        58 3.75431E+07 1.37634E+07 5.07805E+08-6.59562E+06 3.15833E+07-5.05014E+07
 -1        59 1.08953E+07 1.08362E+07-1.42424E+08-7.07076E+06 4.15399E+07-7.12638E+07
 -1        60-6.81370E+07-2.65453E+07-5.76995E+08 1.58087E+07 2.43890E+07-4.76257E+07
 -1        61-6.84232E+07-6.79012E+07-7.77178E+08 7.22214E+06-4.48281E+07-1.80686E+07
 -1        62 1.08396E+08 9.16669E+07 8.79059E+07-2.04567E+07-2.26682E+07 1.86533E+08
 -1        63-1.08396E+08-9.16669E+07-8.79059E+07 2.04567E+07-2.26682E+07 1.86533E+08
 -1        64 6.84232E+07 6.79012E+07 7.77178E+08-7.22214E+06-4.48281E+07-1.80686E+07
 -1        65 6.81370E+07 2.65453E+07 5.76995E+08-1.58087E+07 2.43890E+07-4.76257E+07
 -1        66-1.08953E+07-1.08362E+07 1.42424E+08 7.07076E+06 4.15399E+07-7.12638E+07
 -1        67-3.75431E+07-1.37634E+07-5.07805E+08 6.59562E+06 3.15833E+07-5.05014E+07
 -1        68 1.24536E+07 1.76481E+07-9.82470E+08-5.51671E+06 9.76518E+05-6.33209E+06
 -1        69-2.63403E+07-6.89557E+06-5.23806E+08 4.16234E+06-3.11610E+07 5.61472E+07
 -1        70-1.40914E+06-2.44493E+06 1.14427E+08 9.18594E+05-4.94891E+07 7.89598E+07
 -1        71 3.51565E+07 1.02436E+07 6.24930E+08-5.96204E+06-2.28874E+07 4.19036E+07
 -1        72-4.42757E+06-1.10896E+07 9.14101E+08 3.59875E+06 1.45133E+07-2.41062E+07
 -1        73 1.84255E+07 5.76213E+06 2.74348E+08-3.17055E+06 4.05491E+07-7.29318E+07
 -1        74 5.16138E+06 6.76956E+06-4.66626E+08-2.13645E+06 4.76480E+07-7.98482E+07
 -1        75-4.06362E+07-1.18889E+07-8.45129E+08 6.64764E+06 1.45590E+07-2.31650E+07
 -1        76-6.72195E+06 1.01262E+07-9.59627E+08-1.86336E+06-2.04316E+07 4.00191E+07
 -1        77 1.22929E+07 7.97140E+06-4.16786E+08-2.84932E+06-1.85118E+07 3.43056E+07
 -1        78 1.08396E+08 9.16669E+07 8.79059E+07 2.04567E+07 2.26682E+07 1.86533E+08
 -1        79-6.84232E+07-6.79012E+07-7.77178E+08-7.22214E+06 4.48281E+07-1.80686E+07
 -1        80-6.81370E+07-2.65453E+07-5.76995E+08-1.58087E+07-2.43890E+07-4.76257E+07
 -1        81 1.08953E+07 1.08362E+07-1.42424E+08 7.07076E+06-4.15399E+07-7.12638E+07
 -1        82 3.75431E+07 1.37634E+07 5.07805E+08 6.59562E+06-3.15833E+07-5.05014E+07
 -1        83-1.24536E+07-1.76481E+07 9.82470E+08-5.51671E+06-9.76518E+05-6.33209E+06
 -1        84 2.63403E+07 6.89557E+06 5.23806E+08 4.16234E+06 3.11610E+07 5.61472E+07
 -1        85 1.40914E+06 2.44493E+06-1.14427E+08 9.18594E+05 4.94891E+07 7.89598E+07
 -1        86-3.51565E+07-1.02436E+07-6.24930E+08-5.96204E+06 2.28874E+07 4.19036E+07
 -1        87 4.42757E+06 1.10896E+07-9.14101E+08 3.59875E+06-1.45133E+07-2.41062E+07
 -1        88-1.84255E+07-5.76213E+06-2.74348E+08-3.17055E+06-4.05491E+07-7.29318E+07
 -1        89-5.16138E+06-6.76956E+06 4.66626E+08-2.13645E+06-4.76480E+07-7.98482E+07
 -1        90 4.06362E+07 1.18889E+07 8.45129E+08 6.64764E+06-1.45590E+07-2.31650E+07
 -1        91 6.72195E+06-1.01262E+07 9.59627E+08-1.86336E+06 2.04316E+07 4.00191E+07
 -1        92-1.22929E+07-7.97140E+06 4.16786E+08-2.84932E+06 1.85118E+07 3.43056E+07
 -1        93 8.34465E-07 1.18092E-06 4.35859E-06-1.29278E+07 7.13568E-07 3.47198E+08
 -1        94 8.84109E+07 1.25390E+08 4.36814E+08 1.79745E-07-7.36676E-07 3.73610E+08
 -1        95 1.37836E-06 7.95349E-07 2.83495E-06 2.67057E-07 8.03499E-07 3.43465E+08
 -1        96-8.84109E+07-1.25390E+08-4.36814E+08 5.12227E-08 1.39780E-06 3.73610E+08
 -1        97 9.46224E-07 8.27014E-07 3.68804E-06 1.29278E+07 3.46452E-07 3.47198E+08
 -1        98 1.42306E-06 1.64006E-06 1.76206E-06 2.45499E+07 1.82725E-06 1.12299E+08
 -1        99-3.08453E+07-6.27521E+07-1.89723E+07 9.66713E-07 2.16905E-06 4.60468E+07
 -1       100 7.04080E-06 6.61006E-06 5.20609E-06-1.41654E-06 1.64413E-06 8.73471E+07
 -1       101 3.08453E+07 6.27521E+07 1.89723E+07-3.11062E-07 2.03960E-07 4.60468E+07
 -1       102 1.51247E-06 8.38190E-07 9.59262E-07-2.45499E+07-6.66128E-07 1.12299E+08
 -1       103 1.49012E-07 6.78003E-07 3.70294E-06-2.13032E+07-4.30504E-07 3.80293E+08
 -1       104-2.42718E+07-2.56829E+07-3.71556E+08 9.67053E+06-2.01057E+07 1.52864E+08
 -1       105 5.64381E-07-7.46921E-07 1.71363E-07 1.21189E+07-2.58675E-07 3.23797E+08
 -1       106 2.42718E+07 2.56829E+07 3.71556E+08 9.67053E+06 2.01057E+07 1.52864E+08
 -1       107 3.79980E-07-8.15839E-07 1.21444E-06 2.27961E+07 2.08849E-07-1.18987E+08
 -1       108-1.29899E+07 6.77724E+05-6.91996E+07-5.47879E+06 1.66001E+07-2.87262E+08
 -1       109 1.86823E-06 3.12924E-07 3.64706E-06-3.88683E+06 1.80677E-07-5.03260E+08
 -1       110 1.29899E+07-6.77724E+05 6.91996E+07-5.47879E+06-1.66001E+07-2.87262E+08
 -1       111-8.36328E-07 1.02073E-06 1.41934E-06-1.10695E+07 2.21189E-08-2.94868E+08
 -1       112 1.81946E+07-6.46016E+06 4.76226E+08 6.31063E+05 4.52914E+05-6.37746E+06
 -1       113-3.14973E-06 2.22190E-06-1.97813E-06-4.25458E+06-1.39553E-07-6.42282E+06
 -1       114-1.81946E+07 6.46016E+06-4.76226E+08 6.31063E+05-4.52914E+05-6.37746E+06
 -1       115-2.57604E-06 9.37842E-07-7.26432E-07-9.51804E+06 5.60423E-07 2.91165E+08
 -1       116-3.36353E+06 6.87997E+05-5.51775E+07-1.80377E+05-2.05270E+07 3.03242E+08
 -1       117 6.61239E-08-5.30854E-07-3.50177E-07 5.57840E+05 2.67755E-07 5.27524E+08
 -1       118 3.36353E+06-6.87997E+05 5.51775E+07-1.80377E+05 2.05270E+07 3.03242E+08
 -1       119-9.65782E-07-1.10269E-06-2.97651E-06 1.32275E+07-1.74390E-07 2.07152E+08
 -1       120-1.87875E+07 4.45768E+06-4.41357E+08 1.35594E+06 5.94152E+06-9.10854E+07
 -1       121-2.97464E-06-1.96602E-06-4.57093E-06 6.31064E+06 1.02643E-06-1.58065E+08
 -1       122 1.87875E+07-4.45768E+06 4.41357E+08 1.35594E+06-5.94152E+06-9.10854E+07
 -1       123 5.10365E-06 3.17022E-06-2.07126E-06 7.48069E+06 1.01980E-06-3.72031E+08
 -1       124 8.58100E+06-1.14452E+06 2.29809E+08 6.95915E+05 1.98183E+07-2.90388E+08
 -1       125 9.33779E-06 6.97654E-06-1.45286E-07-7.44616E+05-5.42961E-07-5.00928E+08
 -1       126-8.58100E+06 1.14452E+06-2.29809E+08 6.95915E+05-1.98183E+07-2.90388E+08
 -1       127 2.93879E-06 5.53206E-07-3.69176E-06-1.27070E+07-1.13412E-06-1.64512E+08
 -1       128 1.80813E+07-4.18705E+06 4.69269E+08-1.33370E+06-9.14197E+06 1.23469E+08
 -1       129-1.47149E-06-5.59352E-06-7.28481E-06-4.53077E+06-1.46328E-06 2.06919E+08
 -1       130-1.80813E+07 4.18705E+06-4.69269E+08-1.33370E+06 9.14197E+06 1.23469E+08
 -1       131-2.13459E-06-3.13343E-06-4.98630E-06 1.06019E+07-1.27824E-07 2.05444E+08
 -1       132-1.12466E+08-9.12045E+07-1.07942E+08 7.56234E-07 2.84333E-06 1.68263E+08
 -1       133 7.08948E+07 8.47896E+07 8.05354E+08 3.87010E+06 4.11164E+07-2.95943E+07
 -1       134 7.33665E+07 1.01678E+08 8.33531E+08 1.20373E-06 3.30247E-06-4.11200E+07
 -1       135 7.08948E+07 8.47896E+07 8.05354E+08-3.87010E+06-4.11164E+07-2.95943E+07
 -1       136 6.53441E+07 6.09982E+07 6.31894E+08 3.81842E-07 6.91041E-07-3.33428E+07
 -1       137-1.19480E+07 2.09867E+06 1.49504E+08-9.81352E+04-5.06750E+07-5.49165E+07
 -1       138-1.30007E+07 1.50336E+07 1.56584E+08 1.85333E-07-2.76789E-06-3.85691E+07
 -1       139-1.19480E+07 2.09867E+06 1.49504E+08 9.81352E+04 5.06750E+07-5.49165E+07
 -1       140-3.40590E+07-3.36793E+07-5.39070E+08 3.92552E-07-4.70690E-06-2.75777E+07
 -1       141 1.18918E+07-1.67606E+07-1.02091E+09-2.69745E+06-6.95627E+05-5.74431E+06
 -1       142 1.13300E+07-5.11692E+07-1.05935E+09 1.01747E-06-5.68549E-06-5.15653E+06
 -1       143 1.18918E+07-1.67606E+07-1.02091E+09 2.69745E+06 6.95627E+05-5.74431E+06
 -1       144-2.29553E+07-3.57180E+07-5.60034E+08 6.87782E-07-4.77582E-06 3.25604E+07
 -1       145-1.35303E+06 2.87551E+06 1.19643E+08 3.53475E+05 5.39079E+07 6.19386E+07
 -1       146-1.29691E+06 8.19595E+06 1.24859E+08 7.62288E-07-2.21469E-06 4.49174E+07
 -1       147-1.35303E+06 2.87551E+06 1.19643E+08-3.53475E+05-5.39079E+07 6.19386E+07
 -1       148 3.10843E+07 4.91884E+07 6.72808E+08 8.99658E-07 1.87755E-06 2.46607E+07
 -1       149-3.92314E+06 2.24499E+07 9.51848E+08 2.76632E+06-1.61100E+07-1.89157E+07
 -1       150-3.41871E+06 5.59894E+07 9.89595E+08-3.24100E-07 4.06988E-06-1.37253E+07
 -1       151-3.92314E+06 2.24499E+07 9.51848E+08-2.76632E+06 1.61100E+07-1.89157E+07
 -1       152 1.71264E+07 2.87875E+07 3.00527E+08-8.20030E-07 3.86126E-06-4.22499E+07
 -1       153 5.41365E+06-4.07678E+06-4.81357E+08-1.35071E+06-5.09663E+07-6.28940E+07
 -1       154 5.66591E+06-1.49231E+07-4.96088E+08-4.21423E-07 3.94881E-06-4.59398E+07
 -1       155 5.41365E+06-4.07678E+06-4.81357E+08 1.35071E+06 5.09663E+07-6.28940E+07
 -1       156-3.71292E+07-3.79326E+07-8.89235E+08-1.14553E-07 1.25729E-06-1.23138E+07
 -1       157-5.56376E+06-2.90240E+06-9.79677E+08-1.25089E+06 2.19786E+07 3.28925E+07
 -1       158-4.40556E+06-1.59310E+07-9.99726E+08 9.77889E-07-8.03731E-07 2.57658E+07
 -1       159-5.56376E+06-2.90240E+06-9.79677E+08 1.25089E+06-2.19786E+07 3.28925E+07
 -1       160 1.63702E+07 5.67701E+07-4.28472E+08 1.91643E-06-8.36328E-07 2.04228E+07
 -1       161 2.42889E-06 1.67638E-06 4.45545E-06 2.13032E+07 2.33995E-07 3.80293E+08
 -1       162 2.42718E+07 2.56829E+07 3.71556E+08-9.67053E+06-2.01057E+07 1.52864E+08
 -1       163 6.55279E-06 3.55020E-06 4.10154E-06-1.21189E+07 2.07219E-08 3.23797E+08
 -1       164-2.42718E+07-2.56829E+07-3.71556E+08-9.67053E+06 2.01057E+07 1.52864E+08
 -1       165 4.10154E-06 1.07661E-06 3.60608E-06-2.27961E+07-9.80916E-07-1.18987E+08
 -1       166 1.29899E+07-6.77724E+05 6.91996E+07 5.47879E+06 1.66001E+07-2.87262E+08
 -1       167-4.22820E-07-1.99117E-06 2.52202E-06 3.88683E+06-1.37370E-07-5.03260E+08
 -1       168-1.29899E+07 6.77724E+05-6.91996E+07 5.47879E+06-1.66001E+07-2.87262E+08
 -1       169-2.36370E-06 6.16536E-07-1.75089E-07 1.10695E+07-3.79281E-07-2.94868E+08
 -1       170-1.81946E+07 6.46016E+06-4.76226E+08-6.31063E+05 4.52914E+05-6.37746E+06
 -1       171-6.11506E-06 1.31689E-06-3.37884E-06 4.25458E+06 2.37487E-07-6.42282E+06
 -1       172 1.81946E+07-6.46016E+06 4.76226E+08-6.31063E+05-4.52914E+05-6.37746E+06
 -1       173-4.34555E-06-7.05011E-07-4.38839E-06 9.51804E+06 6.05127E-07 2.91165E+08
 -1       174 3.36353E+06-6.87997E+05 5.51775E+07 1.80377E+05-2.05270E+07 3.03242E+08
 -1       175-2.36556E-06-1.94646E-06-3.15905E-06-5.57840E+05-1.01095E-06 5.27524E+08
 -1       176-3.36353E+06 6.87997E+05-5.51775E+07 1.80377E+05 2.05270E+07 3.03242E+08
 -1       177-3.28012E-06 7.89762E-07-3.98234E-06-1.32275E+07-9.34117E-07 2.07152E+08
 -1       178 1.87875E+07-4.45768E+06 4.41357E+08-1.35594E+06 5.94152E+06-9.10854E+07
 -1       179-3.34531E-06 4.78234E-06-3.22144E-06-6.31064E+06 1.43074E-07-1.58065E+08
 -1       180-1.87875E+07 4.45768E+06-4.41357E+08-1.35594E+06-5.94152E+06-9.10854E+07
 -1       181 1.12690E-06 1.52178E-06-1.01514E-06-7.48069E+06 4.29340E-07-3.72031E+08
 -1       182-8.58100E+06 1.14452E+06-2.29809E+08-6.95915E+05 1.98183E+07-2.90388E+08
 -1       183 3.13076E-06-3.15346E-06-1.14553E-06 7.44616E+05 6.77072E-07-5.00928E+08
 -1       184 8.58100E+06-1.14452E+06 2.29809E+08-6.95915E+05-1.98183E+07-2.90388E+08
 -1       185 2.09920E-06-3.10689E-06 5.21541E-07 1.27070E+07-7.83941E-07-1.64512E+08
 -1       186-1.80813E+07 4.18705E+06-4.69269E+08 1.33370E+06-9.14197E+06 1.23469E+08
 -1       187 1.62981E-06-4.00003E-06-2.19233E-06 4.53077E+06-1.02853E-06 2.06919E+08
 -1       188 1.80813E+07-4.18705E+06 4.69269E+08 1.33370E+06 9.14197E+06 1.23469E+08
 -1       189-2.22586E-06-6.87269E-06-5.15766E-06-1.06019E+07-3.89758E-07 2.05444E+08
 -1       190 1.12466E+08 9.12045E+07 1.07942E+08 4.37722E-07-1.47149E-06 1.68263E+08
 -1       191-7.08948E+07-8.47896E+07-8.05354E+08-3.87010E+06 4.11164E+07-2.95943E+07
 -1       192-7.33665E+07-1.01678E+08-8.33531E+08 5.75092E-07-2.10479E-06-4.11200E+07
 -1       193-7.08948E+07-8.47896E+07-8.05354E+08 3.87010E+06-4.11164E+07-2.95943E+07
 -1       194-6.53441E+07-6.09982E+07-6.31894E+08 4.56348E-07-2.58908E-07-3.33428E+07
 -1       195 1.19480E+07-2.09867E+06-1.49504E+08 9.81352E+04-5.06750E+07-5.49165E+07
 -1       196 1.30007E+07-1.50336E+07-1.56584E+08 6.27711E-07 2.63937E-06-3.85691E+07
 -1       197 1.19480E+07-2.09867E+06-1.49504E+08-9.81352E+04 5.06750E+07-5.49165E+07
 -1       198 3.40590E+07 3.36793E+07 5.39070E+08 4.95929E-07 3.59118E-06-2.75777E+07
 -1       199-1.18918E+07 1.67606E+07 1.02091E+09 2.69745E+06-6.95627E+05-5.74431E+06
 -1       200-1.13300E+07 5.11692E+07 1.05935E+09 1.03377E-06 4.97419E-06-5.15653E+06
 -1       201-1.18918E+07 1.67606E+07 1.02091E+09-2.69745E+06 6.95627E+05-5.74431E+06
 -1       202 2.29553E+07 3.57180E+07 5.60034E+08 1.66520E-06 3.43286E-06 3.25604E+07
 -1       203 1.35303E+06-2.87551E+06-1.19643E+08-3.53475E+05 5.39079E+07 6.19386E+07
 -1       204 1.29691E+06-8.19595E+06-1.24859E+08 1.54553E-06 2.16812E-06 4.49174E+07
 -1       205 1.35303E+06-2.87551E+06-1.19643E+08 3.53475E+05-5.39079E+07 6.19386E+07
 -1       206-3.10843E+07-4.91884E+07-6.72808E+08-1.23703E-06-1.92970E-06 2.46607E+07
 -1       207 3.92314E+06-2.24499E+07-9.51848E+08-2.76632E+06-1.61100E+07-1.89157E+07
 -1       208 3.41871E+06-5.59894E+07-9.89595E+08-2.75718E-06-4.08059E-06-1.37253E+07
 -1       209 3.92314E+06-2.24499E+07-9.51848E+08 2.76632E+06 1.61100E+07-1.89157E+07
 -1       210-1.71264E+07-2.87875E+07-3.00527E+08 1.16415E-08-1.65589E-06-4.22499E+07
 -1       211-5.41365E+06 4.07678E+06 4.81357E+08 1.35071E+06-5.09663E+07-6.28940E+07
 -1       212-5.66591E+06 1.49231E+07 4.96088E+08 4.28408E-07-1.15484E-06-4.59398E+07
 -1       213-5.41365E+06 4.07678E+06 4.81357E+08-1.35071E+06 5.09663E+07-6.28940E+07
 -1       214 3.71292E+07 3.79326E+07 8.89235E+08 2.74274E-07-3.20468E-06-1.23138E+07
 -1       215 5.56376E+06 2.90240E+06 9.79677E+08 1.25089E+06 2.19786E+07 3.28925E+07
 -1       216 4.40556E+06 1.59310E+07 9.99726E+08-1.14832E-06-4.95836E-06 2.57658E+07
 -1       217 5.56376E+06 2.90240E+06 9.79677E+08-1.25089E+06-2.19786E+07 3.28925E+07
 -1       218-1.63702E+07-5.67701E+07 4.28472E+08-4.63100E-07-7.95349E-07 2.04228E+07
 -1       219-2.78652E-06-5.04777E-07 1.86451E-06 9.08040E-08 6.40051E-07 3.22662E+08
 -1       220-3.15532E-06 3.14787E-07 1.40816E-06 8.76690E+06-2.39350E-07 2.77955E+08
 -1       221-2.47117E+07-4.30705E+07-4.03427E+08-4.61005E-08-9.38773E-07 9.54963E+07
 -1       222-6.71297E-06-1.40443E-06 1.82353E-06-3.92029E-07 8.14907E-08 2.32113E+08
 -1       223 2.47117E+07 4.30705E+07 4.03427E+08 5.43194E-07 1.62050E-06 9.54963E+07
 -1       224-3.72529E-09-3.20375E-07 2.54810E-06-8.76690E+06 2.01864E-07 2.77955E+08
 -1       225-2.58908E-06 6.89179E-08 6.70552E-07-6.60773E-07 1.57277E-07-7.19774E+07
 -1       226 3.83705E-07-2.42144E-08 1.58325E-06 3.08580E+06-1.60886E-07-4.17491E+08
 -1       227-1.28670E+07-1.34229E+07-7.92355E+07-4.74975E-07 1.32155E-06-1.85146E+08
 -1       228 6.22123E-07 1.74623E-06 7.31088E-07-6.91973E-07 8.68458E-08-3.31722E+08
 -1       229 1.28670E+07 1.34229E+07 7.92355E+07 1.91852E-07-1.29826E-06-1.85146E+08
 -1       230 9.61125E-07 9.31323E-07 2.23145E-06-3.08580E+06 2.69618E-07-4.17491E+08
 -1       231 1.30944E-06-3.84171E-07 1.29826E-06 3.72529E-08-2.19559E-07-1.98615E+08
 -1       232 9.62988E-07 6.16070E-07-8.42847E-07-1.24687E+07-6.58722E-07-5.36904E+06
 -1       233 1.77182E+07 3.02739E+07 5.23454E+08 1.18557E-06 1.88325E-06-4.73589E+06
 -1       234 4.38374E-06-2.55532E-06-3.55998E-07 1.13854E-06-8.95132E-07-4.31525E+06
 -1       235-1.77182E+07-3.02739E+07-5.23454E+08 9.78354E-07-3.13402E-06-4.73589E+06
 -1       236-1.21072E-06-1.40117E-06-2.19140E-06 1.24687E+07-1.87443E-07-5.36904E+06
 -1       237 3.00817E-07-1.03866E-06-9.70438E-07 9.87435E-07-6.50529E-07 1.94198E+08
 -1       238-2.77348E-06-1.41375E-06-2.24076E-06 1.82991E+06-2.04891E-07 4.38907E+08
 -1       239-3.30278E+06-4.99470E+06-6.17176E+07 1.51340E-06 8.98726E-07 1.97604E+08
 -1       240-3.29874E-06 3.35276E-08-3.02494E-06 1.06660E-06-1.59023E-07 3.50291E+08
 -1       241 3.30278E+06 4.99470E+06 6.17176E+07 7.06874E-07-1.08033E-06 1.97604E+08
 -1       242-1.67638E-06 2.09548E-07-2.53879E-06-1.82991E+06-3.25032E-07 4.38907E+08
 -1       243-3.75323E-07-3.71132E-07-3.17208E-06 1.63633E-06-1.00932E-06 1.38601E+08
 -1       244-1.19396E-06 2.49594E-07-3.40538E-06 1.26757E+07 1.28523E-07-1.31161E+08
 -1       245-1.85430E+07-3.14898E+07-4.87880E+08 2.95229E-07-2.17534E-06-5.89916E+07
 -1       246 1.08965E-07-1.21584E-06-2.82377E-06 2.09687E-06-3.29339E-07-1.04258E+08
 -1       247 1.85430E+07 3.14898E+07 4.87880E+08 2.61702E-07 1.84053E-06-5.89916E+07
 -1       248-1.85706E-06-5.68107E-08-3.31458E-06-1.26757E+07 1.26893E-07-1.31161E+08
 -1       249 1.32341E-06 1.08499E-07-2.80514E-06 2.00351E-06 3.57162E-07-2.47042E+08
 -1       250 5.86890E-06 3.04729E-06-9.05246E-07-4.23177E+06 6.44941E-08-4.16076E+08
 -1       251 7.53602E+06 1.02551E+07 2.47177E+08 1.24983E-06-5.63450E-07-1.88582E+08
 -1       252 1.41625E-06 1.57487E-06-2.01445E-06 1.26949E-06-1.12806E-07-3.31225E+08
 -1       253-7.53602E+06-1.02551E+07-2.47177E+08 2.31666E-08 1.84774E-06-1.88582E+08
 -1       254 1.77976E-06 4.40516E-07-1.75647E-06 4.23177E+06-1.10362E-07-4.16076E+08
 -1       255-7.74162E-07 1.70060E-06-3.38070E-06 4.40108E-07-1.83471E-07-1.04602E+08
 -1       256-3.14415E-06-2.27429E-06-5.32065E-06-7.64501E+06-1.29710E-06 1.76164E+08
 -1       257 1.53676E+07 1.00897E+07 4.95034E+08 3.96278E-07-2.67802E-06 8.55878E+07
 -1       258-3.64054E-06 1.78302E-06-2.65473E-06-2.09548E-08-5.92787E-07 1.45410E+08
 -1       259-1.53676E+07-1.00897E+07-4.95034E+08-5.01052E-07-7.95815E-07 8.55878E+07
 -1       260-4.15370E-07-7.39470E-07-2.07312E-06 7.64501E+06-5.41564E-07 1.76164E+08
 -1       261 6.79865E-07 4.08455E-06 2.20397E-06-6.42147E-07 2.11527E-07 1.38475E+08
 -3
 9999
